Al Co Li Ni O 
 1.0000000000000000
     8.4908300834614785   -0.0147685238944017   -0.0224277601224295
    -4.2581988951131331    7.3449592503045826    0.0177735844253757
    -0.0372076155094063    0.0124406012090187   14.2022834369131683
 Al  Co  Li  Ni  O  
   9   9  21   9  54
Direct
  0.0066870058343957  0.3406014866853310  0.0040517479417370
  0.4437312957303777  0.2208208623145852  0.6662461693970024
  0.8898853354627788  0.7818271542121285  0.3386838381124869
  0.2215766773449994  0.4463378650491496  0.3245789866539555
  0.5534423617996161  0.1133666224702464  0.3256930464358400
  0.6730043912141275  0.6735626374671928  0.9947189659462907
  0.3388223224414640  0.0059133917453372  1.0007717011863224
  0.1085668441317480  0.5529767681842502  0.6703992820284160
  0.7760991652808024  0.8856873969807489  0.6692395928994206
  0.0027579073443215  0.0026551680868133  0.9989074693819393
  0.7771309293230682  0.5557433996067822  0.6685640979009267
  0.1086350897745900  0.2198387006208748  0.6700216769338876
  0.5562438070806905  0.7794072927417462  0.3304680436521476
  0.4403538707992100  0.8872903500477162  0.6667359497437625
  0.2222203271312297  0.1148294641417100  0.3316450905990346
  0.3370179539790519  0.6703206975081969  1.0006591013049724
  0.6679760237348960  0.3354001675141259  0.0001945934695907
  0.8915445391257486  0.4472690659300331  0.3343685886879434
  0.4424975473525796  0.5418089274867702  0.1650679572256434
  0.1197115991853856  0.8793843703057560  0.1651983176080618
  0.7831657320434343  0.2335069351346449  0.1661401654579645
  0.4331892422505147  0.8700198258466384  0.1653686464683281
  0.7803872142834650  0.8962422901848033  0.1658286353990567
  0.0302646320359860  0.0522744951074521  0.5004085769417385
  0.3260591966045248 -0.0012390913980865  0.4989817678412642
  0.2810844833210889  0.5451694822228734  0.4924334511298921
  0.7822350683772211  0.5419907283659954  0.1660242126335666
  0.6679389219439330  0.0037681442058934  0.5004271842828794
  0.6777078524735484  0.3415780456977917  0.5001010299728809
  0.6403991414145187  0.6456521857949641  0.4992014332355019
  0.2084384693065065  0.1004193282864720  0.8335759092227507
  0.8733287251730592  0.1112465107071077  0.8342636136586254
  0.2288054187287110  0.4475877039074305  0.8352181763913986
  0.5608267081057362  0.4435698618846800  0.8332263042322764
  0.8679046665811708  0.4420466761796871  0.8342675763421024
  0.2164968499527941  0.7865793719603826  0.8345718845823074
  0.5471959468346480  0.7946353018810320  0.8341510605237972
  0.1247417881859399  0.2134196369075051  0.1637586090598019
  0.0069337081810866  0.6588098763599386  0.4997877893210325
  0.6704548337167330  0.0062930114334735  0.9989199291233913
  0.1067821022572154  0.8856731261932780  0.6690073344684976
  0.4440485101384485  0.5541989738223366  0.6686577232145318
  0.7764001567652288  0.2196450435727552  0.6674081124047101
  0.5549641314866789  0.4431225092817784  0.3308341580296852
  0.2232022479888458  0.7793899685566853  0.3314579826952476
  0.8876509577866654  0.1151137177433837  0.3338619956422139
  0.0042452914697409  0.6711170284768264  0.9995976856365709
  0.3385783640563858  0.3367144326952607  0.0014739386928249
  0.3272842356995567  0.9951638710528380  0.7372592614258640
  1.0002396936243789  0.0010278975245005  0.7400315485224959
  0.8876778165597194  0.7747516129515922  0.5976961345503627
  0.5546658054322754  0.7781355653308029  0.5950377045612640
  0.2177156840434661  0.7765215345742831  0.5964498428332554
  0.8909475313921502  0.1035110662061583  0.5969315604816403
  0.5633475515164768  0.4410571365871876  0.5935839491619436
  0.2179976911225683  0.4419232000057332  0.6052267164643458
  0.6622878099745428  0.9900601194714499  0.7382700358794189
  0.5370858964416056  0.0998680002319450  0.5898431403990055
  0.8895314484837057  0.4516661932711367  0.5973100763968195
  0.0121888947825747  0.3371938160854898  0.7469901660441214
  0.3294727498375461  0.6770942310132717  0.7440925035537218
  0.6633882566437466  0.3385959576701872  0.7389983638825333
 -0.0016723481204721  0.6635852352084352  0.7397883507823761
  0.2156581965508872  0.1076966453820107  0.5989920138423644
  0.6635331656606877  0.6615022702833900  0.7384559113660402
  0.1139193224658579  0.2243700970182737  0.9291270595446109
  0.4466357202693688  0.2294201612301268  0.9305208299564338
  0.7878738568591450  0.2316348188648349  0.9306278378577468
  0.1212636202503452  0.5547207914973611  0.9272092960894924
  0.4510279741280165  0.5705022578205298  0.9240684921356288
  0.7696574445891993  0.5493019798645079  0.9263000424608743
  0.1210184717639527  0.9026372004788512  0.9279410033075526
  0.3322755683988601  0.3271180290947801  0.7417369360210200
  0.7714987308988461  0.8895623072429970  0.4066549165348506
  0.8989416746731865  0.1163949607012676  0.0741957324098243
  0.1077083635212073  0.9059402724582000  0.4119385920181903
  0.2156651476236581  0.1020409676852377  0.0728090025202529
  0.5640390825098907  0.1150193371057660  0.0703691365353237
  0.4406753098188981  0.8871259884821296  0.9289418230998781
  0.2324787577043257  0.4478954881568094  0.0712602749632599
  0.5651464270439611  0.4561971300710267  0.0693177721983183
  0.8844378063565030  0.4394121866458953  0.0728810003579706
  0.2361979134366275  0.7871532626725825  0.0720956057412936
  0.5589910970591468  0.7814064783338001  0.0707020318877949
  0.8866353348895750  0.7872052862762349  0.0728688259119144
 -0.0015818573588971  1.0012887184781822  0.2622991564862277
  0.3258191294617410  0.9953154596029991  0.2595223511396367
  0.4466296630321006  0.8906991231564819  0.3992318048031703
  0.6639309297114595  0.9996251955126889  0.2566903716845285
  0.3180842819679304  0.3263837516064023  0.2557406977377535
  0.6772873653375669  0.3383998393328619  0.2595102229655329
  0.9973605679495320  0.6731703399838413  0.2656534865808701
  0.3492194306132046  0.6644834725535579  0.2541417735837420
  0.6737353136291561  0.6760616181584270  0.2608734769050302
  0.1164867268815351  0.2289753455876105  0.3998361529652611
  0.4427541916235230  0.2152339998829762  0.4002165437145984
  0.7702584237223933  0.2218858690454866  0.4022251273154889
  0.1176072463783574  0.5594069259260056  0.4012979634523954
  0.4446229364066029  0.5607673085034007  0.4004926319888101
  0.7944950167280288  0.5640560632991594  0.4120461665516369
  0.9923820913570647  0.3334151696480955  0.2609190513865174
  0.7810225681986596  0.9004654652830650  0.9278813455033844
Cartesian
  0.0000000000000000  0.0000000000000000  0.0000000000000000
  0.0000000000000000  0.0000000000000000  0.0000000000000000
  0.0000000000000000  0.0000000000000000  0.0000000000000000
  0.0000000000000000  0.0000000000000000  0.0000000000000000
  0.0000000000000000  0.0000000000000000  0.0000000000000000
  0.0000000000000000  0.0000000000000000  0.0000000000000000
  0.0000000000000000  0.0000000000000000  0.0000000000000000
  0.0000000000000000  0.0000000000000000  0.0000000000000000
  0.0000000000000000  0.0000000000000000  0.0000000000000000
  0.0000000000000000  0.0000000000000000  0.0000000000000000
  0.0000000000000000  0.0000000000000000  0.0000000000000000
  0.0000000000000000  0.0000000000000000  0.0000000000000000
  0.0000000000000000  0.0000000000000000  0.0000000000000000
  0.0000000000000000  0.0000000000000000  0.0000000000000000
  0.0000000000000000  0.0000000000000000  0.0000000000000000
  0.0000000000000000  0.0000000000000000  0.0000000000000000
  0.0000000000000000  0.0000000000000000  0.0000000000000000
  0.0000000000000000  0.0000000000000000  0.0000000000000000
  0.0000000000000000  0.0000000000000000  0.0000000000000000
  0.0000000000000000  0.0000000000000000  0.0000000000000000
  0.0000000000000000  0.0000000000000000  0.0000000000000000
  0.0000000000000000  0.0000000000000000  0.0000000000000000
  0.0000000000000000  0.0000000000000000  0.0000000000000000
  0.0000000000000000  0.0000000000000000  0.0000000000000000
  0.0000000000000000  0.0000000000000000  0.0000000000000000
  0.0000000000000000  0.0000000000000000  0.0000000000000000
  0.0000000000000000  0.0000000000000000  0.0000000000000000
  0.0000000000000000  0.0000000000000000  0.0000000000000000
  0.0000000000000000  0.0000000000000000  0.0000000000000000
  0.0000000000000000  0.0000000000000000  0.0000000000000000
  0.0000000000000000  0.0000000000000000  0.0000000000000000
  0.0000000000000000  0.0000000000000000  0.0000000000000000
  0.0000000000000000  0.0000000000000000  0.0000000000000000
  0.0000000000000000  0.0000000000000000  0.0000000000000000
  0.0000000000000000  0.0000000000000000  0.0000000000000000
  0.0000000000000000  0.0000000000000000  0.0000000000000000
  0.0000000000000000  0.0000000000000000  0.0000000000000000
  0.0000000000000000  0.0000000000000000  0.0000000000000000
  0.0000000000000000  0.0000000000000000  0.0000000000000000
  0.0000000000000000  0.0000000000000000  0.0000000000000000
  0.0000000000000000  0.0000000000000000  0.0000000000000000
  0.0000000000000000  0.0000000000000000  0.0000000000000000
  0.0000000000000000  0.0000000000000000  0.0000000000000000
  0.0000000000000000  0.0000000000000000  0.0000000000000000
  0.0000000000000000  0.0000000000000000  0.0000000000000000
  0.0000000000000000  0.0000000000000000  0.0000000000000000
  0.0000000000000000  0.0000000000000000  0.0000000000000000
  0.0000000000000000  0.0000000000000000  0.0000000000000000
  0.0000000000000000  0.0000000000000000  0.0000000000000000
  0.0000000000000000  0.0000000000000000  0.0000000000000000
  0.0000000000000000  0.0000000000000000  0.0000000000000000
  0.0000000000000000  0.0000000000000000  0.0000000000000000
  0.0000000000000000  0.0000000000000000  0.0000000000000000
  0.0000000000000000  0.0000000000000000  0.0000000000000000
  0.0000000000000000  0.0000000000000000  0.0000000000000000
  0.0000000000000000  0.0000000000000000  0.0000000000000000
  0.0000000000000000  0.0000000000000000  0.0000000000000000
  0.0000000000000000  0.0000000000000000  0.0000000000000000
  0.0000000000000000  0.0000000000000000  0.0000000000000000
  0.0000000000000000  0.0000000000000000  0.0000000000000000
  0.0000000000000000  0.0000000000000000  0.0000000000000000
  0.0000000000000000  0.0000000000000000  0.0000000000000000
  0.0000000000000000  0.0000000000000000  0.0000000000000000
  0.0000000000000000  0.0000000000000000  0.0000000000000000
  0.0000000000000000  0.0000000000000000  0.0000000000000000
  0.0000000000000000  0.0000000000000000  0.0000000000000000
  0.0000000000000000  0.0000000000000000  0.0000000000000000
  0.0000000000000000  0.0000000000000000  0.0000000000000000
  0.0000000000000000  0.0000000000000000  0.0000000000000000
  0.0000000000000000  0.0000000000000000  0.0000000000000000
  0.0000000000000000  0.0000000000000000  0.0000000000000000
  0.0000000000000000  0.0000000000000000  0.0000000000000000
  0.0000000000000000  0.0000000000000000  0.0000000000000000
  0.0000000000000000  0.0000000000000000  0.0000000000000000
  0.0000000000000000  0.0000000000000000  0.0000000000000000
  0.0000000000000000  0.0000000000000000  0.0000000000000000
  0.0000000000000000  0.0000000000000000  0.0000000000000000
  0.0000000000000000  0.0000000000000000  0.0000000000000000
  0.0000000000000000  0.0000000000000000  0.0000000000000000
  0.0000000000000000  0.0000000000000000  0.0000000000000000
  0.0000000000000000  0.0000000000000000  0.0000000000000000
  0.0000000000000000  0.0000000000000000  0.0000000000000000
  0.0000000000000000  0.0000000000000000  0.0000000000000000
  0.0000000000000000  0.0000000000000000  0.0000000000000000
  0.0000000000000000  0.0000000000000000  0.0000000000000000
  0.0000000000000000  0.0000000000000000  0.0000000000000000
  0.0000000000000000  0.0000000000000000  0.0000000000000000
  0.0000000000000000  0.0000000000000000  0.0000000000000000
  0.0000000000000000  0.0000000000000000  0.0000000000000000
  0.0000000000000000  0.0000000000000000  0.0000000000000000
  0.0000000000000000  0.0000000000000000  0.0000000000000000
  0.0000000000000000  0.0000000000000000  0.0000000000000000
  0.0000000000000000  0.0000000000000000  0.0000000000000000
  0.0000000000000000  0.0000000000000000  0.0000000000000000
  0.0000000000000000  0.0000000000000000  0.0000000000000000
  0.0000000000000000  0.0000000000000000  0.0000000000000000
  0.0000000000000000  0.0000000000000000  0.0000000000000000
  0.0000000000000000  0.0000000000000000  0.0000000000000000
  0.0000000000000000  0.0000000000000000  0.0000000000000000
  0.0000000000000000  0.0000000000000000  0.0000000000000000
  0.0000000000000000  0.0000000000000000  0.0000000000000000
  0.0000000000000000  0.0000000000000000  0.0000000000000000
