Ni Co Al Li  O                          
   1.00000000000000     
     8.4908300834614785   -0.0147685238944017   -0.0224277601224295
    -4.2581988951131331    7.3449592503045826    0.0177735844253757
    -0.0372076155094063    0.0124406012090187   14.2022834369131683
   Ni   Co   Al   Li   O 
     9     9     9    21    54
Direct
  0.6704462063690642  0.0066917107342164  0.9974111436814681
  0.3400562428780134  0.3374425434972395  0.0025848231822678
  0.0029681031504296  0.6698097199360546  0.9995692734479107
  0.8878225714303625  0.1124092856305765  0.3350558873083003
  0.2202889025050254  0.7747921249773242  0.3307693262472924
  0.5521013395657235  0.4410706697906690  0.3330651444200328
  0.7763467857394417  0.2204549973323253  0.6668550640864055
  0.4428008479559224  0.5511796019517874  0.6650271895372555
  0.1069479054229916  0.8838304512894979  0.6691448368967485
  0.0045592908700556  0.0032543102195604  0.9997995005102638
  0.6713122903203370  0.3382055156418318  0.0001492062636217
  0.3362834929792982  0.6712411444592163  0.9994608067300135
  0.2213722469771611  0.1104081995324506  0.3315721340038493
  0.8860026981343125  0.4434090586199844  0.3359123197341560
  0.5558768403865457  0.7769300810846431  0.3319715636895850
  0.1083551296028133  0.2200462582579874  0.6672046001220195
  0.7767450978791999  0.5529840943847191  0.6679545114128302
  0.4441073389742130  0.8866952152110130  0.6646386979283960
  0.3378558961096942  0.0046216374250747  0.9997424680420153
  0.0067987654147714  0.3386953533538986  0.0046779249628344
  0.6718017263667164  0.6736941553326332  0.9950618683686088
  0.5525300058200600  0.1107269581816297  0.3297944371433061
  0.2212860882944483  0.4438451410184712  0.3343621995171446
  0.8893923288762693  0.7798553017355232  0.3351136351232142
  0.4420968608593867  0.2185946659461564  0.6683704245624469
  0.1099982383089966  0.5522189502309089  0.6641527709834776
  0.7769428409641037  0.8865226778329713  0.6679610538469944
  0.1259252777657380  0.2069097258167929  0.1653405958513972
  0.7813512742130655  0.2295700313085760  0.1671881797325199
  0.4410959764607867  0.5407888310908291  0.1681866683022264
  0.7789435926200952  0.5360276678861808  0.1667052286769746
  0.1173923717394487  0.8826613683973292  0.1657239567770290
  0.4312811933912784  0.8651718118803160  0.1666130395675438
  0.7846598839976977  0.8956997671591012  0.1661607754913277
  0.0278767097756898  0.0438804301642080  0.5003092770561892
  0.3253562034889370  0.0030293178749474  0.4990666435230011
  0.6820064870571727  0.0148449187979338  0.5008428434213101
  0.6784709147967192  0.3417089101389479  0.5002831070235132
  0.0010351991623452  0.6623952741179195  0.5000251463968155
  0.3338547120730126  0.6573730356703322  0.5007076589469577
  0.6452144254154106  0.6444807533316137  0.4998736818332716
  0.1974377396681177  0.1000050431503183  0.8328483840380017
  0.8737663344233937  0.1082990643795938  0.8320402580107640
  0.2258288087562406  0.4450705255934437  0.8341332973986368
  0.5587575024647862  0.4432605870415713  0.8331842931969362
  0.8681117630338306  0.4433092235694218  0.8338312486764039
  0.2145424096783444  0.7854784346858352  0.8342637601457952
  0.5418020935581183  0.7914884166205098  0.8338707113613495
  0.2163230318561205  0.0973694590055842  0.0737717004876544
  0.5638436476566895  0.1144610050025250  0.0677995928409842
  0.9076255154362656  0.1193180604099240  0.0765914648272812
  0.2329700160012536  0.4475053374526112  0.0714123104092366
  0.5708721258321958  0.4596258129056281  0.0712565338321127
  0.8799496237691002  0.4320567115313168  0.0737923550019772
  0.2413181548152252  0.7868690069605364  0.0717145505516825
  0.5551529858130806  0.7787785647750454  0.0695532797204734
  0.8849715356854233  0.7898234636465418  0.0719030825368776
  0.0072711445943412  0.9933477524886385  0.2581798311492562
  0.3289445934823760  0.9916064302754819  0.2603944882903519
  0.6627393523248628  0.9980992653580429  0.2594640355575848
  0.9925434729687623  0.3312071429183163  0.2668093162361629
  0.3146425285043506  0.3243550699230227  0.2604488348458815
  0.6791479658464539  0.3320487417382409  0.2603727374613740
  0.9888978361396923  0.6629954016418864  0.2631942095116315
  0.3444187895710655  0.6599716596132055  0.2587219279894413
  0.6734372761454281  0.6825713304039525  0.2594125487885179
  0.1132821757686600  0.2200832661361432  0.4013769080401346
  0.4324275543511291  0.2014674325043586  0.4032841719457139
  0.7626421271976582  0.2260480447784445  0.4077887522031958
  0.1120371196046435  0.5589280779568284  0.4025263233558931
  0.4433458035850251  0.5693993562127559  0.4058384129057586
  0.7900491247899666  0.5628882214509403  0.4095096818842308
  0.1065628873452624  0.8977968068318347  0.4089809176702701
  0.4487265460450232  0.8865490288247102  0.4018160050269586
  0.7774420384386360  0.8889702368853420  0.4060303654300128
  0.2156141755321954  0.1053694132898002  0.5997951655888230
  0.5368864563987614  0.0995194347567576  0.5922526530383507
  0.8957473750419709  0.1033030745878847  0.5947586554847533
  0.2234776571552501  0.4426120549905477  0.5981532126322548
  0.5613870504288130  0.4377983513047567  0.5941429785951229
  0.8902781783626565  0.4594467744515356  0.5942239545783252
  0.2297198600075916  0.7693882792697266  0.5893406406443376
  0.5615527745072981  0.7869085388734121  0.5902084696291467
  0.8847489621430995  0.7733127881623076  0.5974839374307379
  0.9916574789979933  0.0101314776755572  0.7422930951516378
  0.3290502052751378  0.9921187571372556  0.7369460054552377
  0.6542438569605480  0.9800720340264846  0.7378644904944665
  0.0140369951754238  0.3393557893542933  0.7411701743457613
  0.3250431681527743  0.3187025754708941  0.7422566529613519
  0.6618897509838035  0.3426111619673620  0.7399681216995759
  0.0019700967503624  0.6594267106681428  0.7382491713205468
  0.3327896875624887  0.6715778468945359  0.7371321246515379
  0.6600621797519466  0.6590032131801564  0.7350539418309410
  0.1107347141682880  0.2215871575541684  0.9300717522554507
  0.4476836265861621  0.2308388813401123  0.9323695388177171
  0.7915829016290274  0.2363994228756710  0.9289898091530659
  0.1222203813825544  0.5509635565938922  0.9271031991522634
  0.4516641053432764  0.5733319918059223  0.9233045619745965
  0.7645434822645285  0.5460259263091061  0.9259495365613333
  0.1202863789177329  0.9087476338269767  0.9273315541100260
  0.4297048894869135  0.8821544403358388  0.9252653679359497
  0.7798002491687654  0.8994311682385359  0.9280925388012236
 
  0.00000000E+00  0.00000000E+00  0.00000000E+00
  0.00000000E+00  0.00000000E+00  0.00000000E+00
  0.00000000E+00  0.00000000E+00  0.00000000E+00
  0.00000000E+00  0.00000000E+00  0.00000000E+00
  0.00000000E+00  0.00000000E+00  0.00000000E+00
  0.00000000E+00  0.00000000E+00  0.00000000E+00
  0.00000000E+00  0.00000000E+00  0.00000000E+00
  0.00000000E+00  0.00000000E+00  0.00000000E+00
  0.00000000E+00  0.00000000E+00  0.00000000E+00
  0.00000000E+00  0.00000000E+00  0.00000000E+00
  0.00000000E+00  0.00000000E+00  0.00000000E+00
  0.00000000E+00  0.00000000E+00  0.00000000E+00
  0.00000000E+00  0.00000000E+00  0.00000000E+00
  0.00000000E+00  0.00000000E+00  0.00000000E+00
  0.00000000E+00  0.00000000E+00  0.00000000E+00
  0.00000000E+00  0.00000000E+00  0.00000000E+00
  0.00000000E+00  0.00000000E+00  0.00000000E+00
  0.00000000E+00  0.00000000E+00  0.00000000E+00
  0.00000000E+00  0.00000000E+00  0.00000000E+00
  0.00000000E+00  0.00000000E+00  0.00000000E+00
  0.00000000E+00  0.00000000E+00  0.00000000E+00
  0.00000000E+00  0.00000000E+00  0.00000000E+00
  0.00000000E+00  0.00000000E+00  0.00000000E+00
  0.00000000E+00  0.00000000E+00  0.00000000E+00
  0.00000000E+00  0.00000000E+00  0.00000000E+00
  0.00000000E+00  0.00000000E+00  0.00000000E+00
  0.00000000E+00  0.00000000E+00  0.00000000E+00
  0.00000000E+00  0.00000000E+00  0.00000000E+00
  0.00000000E+00  0.00000000E+00  0.00000000E+00
  0.00000000E+00  0.00000000E+00  0.00000000E+00
  0.00000000E+00  0.00000000E+00  0.00000000E+00
  0.00000000E+00  0.00000000E+00  0.00000000E+00
  0.00000000E+00  0.00000000E+00  0.00000000E+00
  0.00000000E+00  0.00000000E+00  0.00000000E+00
  0.00000000E+00  0.00000000E+00  0.00000000E+00
  0.00000000E+00  0.00000000E+00  0.00000000E+00
  0.00000000E+00  0.00000000E+00  0.00000000E+00
  0.00000000E+00  0.00000000E+00  0.00000000E+00
  0.00000000E+00  0.00000000E+00  0.00000000E+00
  0.00000000E+00  0.00000000E+00  0.00000000E+00
  0.00000000E+00  0.00000000E+00  0.00000000E+00
  0.00000000E+00  0.00000000E+00  0.00000000E+00
  0.00000000E+00  0.00000000E+00  0.00000000E+00
  0.00000000E+00  0.00000000E+00  0.00000000E+00
  0.00000000E+00  0.00000000E+00  0.00000000E+00
  0.00000000E+00  0.00000000E+00  0.00000000E+00
  0.00000000E+00  0.00000000E+00  0.00000000E+00
  0.00000000E+00  0.00000000E+00  0.00000000E+00
  0.00000000E+00  0.00000000E+00  0.00000000E+00
  0.00000000E+00  0.00000000E+00  0.00000000E+00
  0.00000000E+00  0.00000000E+00  0.00000000E+00
  0.00000000E+00  0.00000000E+00  0.00000000E+00
  0.00000000E+00  0.00000000E+00  0.00000000E+00
  0.00000000E+00  0.00000000E+00  0.00000000E+00
  0.00000000E+00  0.00000000E+00  0.00000000E+00
  0.00000000E+00  0.00000000E+00  0.00000000E+00
  0.00000000E+00  0.00000000E+00  0.00000000E+00
  0.00000000E+00  0.00000000E+00  0.00000000E+00
  0.00000000E+00  0.00000000E+00  0.00000000E+00
  0.00000000E+00  0.00000000E+00  0.00000000E+00
  0.00000000E+00  0.00000000E+00  0.00000000E+00
  0.00000000E+00  0.00000000E+00  0.00000000E+00
  0.00000000E+00  0.00000000E+00  0.00000000E+00
  0.00000000E+00  0.00000000E+00  0.00000000E+00
  0.00000000E+00  0.00000000E+00  0.00000000E+00
  0.00000000E+00  0.00000000E+00  0.00000000E+00
  0.00000000E+00  0.00000000E+00  0.00000000E+00
  0.00000000E+00  0.00000000E+00  0.00000000E+00
  0.00000000E+00  0.00000000E+00  0.00000000E+00
  0.00000000E+00  0.00000000E+00  0.00000000E+00
  0.00000000E+00  0.00000000E+00  0.00000000E+00
  0.00000000E+00  0.00000000E+00  0.00000000E+00
  0.00000000E+00  0.00000000E+00  0.00000000E+00
  0.00000000E+00  0.00000000E+00  0.00000000E+00
  0.00000000E+00  0.00000000E+00  0.00000000E+00
  0.00000000E+00  0.00000000E+00  0.00000000E+00
  0.00000000E+00  0.00000000E+00  0.00000000E+00
  0.00000000E+00  0.00000000E+00  0.00000000E+00
  0.00000000E+00  0.00000000E+00  0.00000000E+00
  0.00000000E+00  0.00000000E+00  0.00000000E+00
  0.00000000E+00  0.00000000E+00  0.00000000E+00
  0.00000000E+00  0.00000000E+00  0.00000000E+00
  0.00000000E+00  0.00000000E+00  0.00000000E+00
  0.00000000E+00  0.00000000E+00  0.00000000E+00
  0.00000000E+00  0.00000000E+00  0.00000000E+00
  0.00000000E+00  0.00000000E+00  0.00000000E+00
  0.00000000E+00  0.00000000E+00  0.00000000E+00
  0.00000000E+00  0.00000000E+00  0.00000000E+00
  0.00000000E+00  0.00000000E+00  0.00000000E+00
  0.00000000E+00  0.00000000E+00  0.00000000E+00
  0.00000000E+00  0.00000000E+00  0.00000000E+00
  0.00000000E+00  0.00000000E+00  0.00000000E+00
  0.00000000E+00  0.00000000E+00  0.00000000E+00
  0.00000000E+00  0.00000000E+00  0.00000000E+00
  0.00000000E+00  0.00000000E+00  0.00000000E+00
  0.00000000E+00  0.00000000E+00  0.00000000E+00
  0.00000000E+00  0.00000000E+00  0.00000000E+00
  0.00000000E+00  0.00000000E+00  0.00000000E+00
  0.00000000E+00  0.00000000E+00  0.00000000E+00
  0.00000000E+00  0.00000000E+00  0.00000000E+00
  0.00000000E+00  0.00000000E+00  0.00000000E+00
  0.00000000E+00  0.00000000E+00  0.00000000E+00
