Li                                      
   1.00000000000000     
     3.3678055526975306    0.0000000046067759    0.0000000046067763
    -0.0000002305104059    3.3678055526975221    0.0000000046067763
    -0.0000002305104059   -0.0000002305104219    3.3678055526975137
   Li
     2
Direct
  0.0000000000000000  0.0000000000000000  0.0000000000000000
  0.5000000000000000  0.5000000000000000  0.5000000000000000
 
  0.00000000E+00  0.00000000E+00  0.00000000E+00
  0.00000000E+00  0.00000000E+00  0.00000000E+00
