Al Co Li Ni O 
 1.0000000000000000
     8.4908300834614785   -0.0147685238944017   -0.0224277601224295
    -4.2581988951131331    7.3449592503045826    0.0177735844253757
    -0.0372076155094063    0.0124406012090187   14.2022834369131683
 Al  Co  Li  Ni  O  
   9   9  21   9  54
Direct
  0.0059067572484132  0.3395709878388564  0.0035601860282266
  0.4432842463007688  0.2234694982654449  0.6660608454133898
  0.8921487482031227  0.7839770671901209  0.3361761496143935
  0.2237973938435430  0.4494100069325683  0.3215453472776044
  0.5548450417512992  0.1144971969506565  0.3272635422289176
  0.6721987459322297  0.6734142852258425  0.9962334966395573
  0.3374819293467237  0.0048073557639864  1.0000616162665799
  0.1091330803646405  0.5563371383272806  0.6690136393443349
  0.7772618400913037  0.8901177327850121  0.6702957966433187
  0.0045980299888354  0.0048905075146236  0.9997094954084488
  0.7768331814291952  0.5556547091464905  0.6684124970324964
  0.1077530864010854  0.2205885811864839  0.6712124858355304
  0.5567396444066206  0.7826584152262329  0.3305666201556013
  0.4416959710183838  0.8872078697897180  0.6659349601981608
  0.2246533750116531  0.1163516882757255  0.3327207522708590
  0.3374921147315807  0.6719387442134582  1.0001282095370494
  0.6715948985600614  0.3391474853835448  0.0002968596242523
  0.8886775854257445  0.4468466713254091  0.3342621072866153
  0.4479974145679150  0.5475245556548252  0.1649391034721733
  0.1175302410186949  0.8810318006683960  0.1656227200441455
  0.7807184128376062  0.2282059024057157  0.1659379233107331
  0.4372766118226228  0.8702355268739577  0.1650828992568454
  0.7821171155694724  0.8984358048807276  0.1658059842194335
  0.0275017957198625  0.0426242446963975  0.5003362206573646
  0.3289195387619137 -0.0076960964425704  0.4984031036257536
  0.2517151123284534  0.4475438156805109  0.4859028559229493
  0.7823501658826841  0.5405556752108097  0.1656475549122136
  0.6659277684408956  0.0038833462783898  0.5010499641668217
  0.6805981998141633  0.3461373611239923  0.5000272666266130
  0.6429641193547109  0.6538295270194409  0.5003788942909246
  0.2028431478659579  0.1038978495978527  0.8341250349909840
  0.8755256404036459  0.1124877835322751  0.8337961466798898
  0.2275771645757960  0.4473192235393736  0.8352662178672965
  0.5575126734392009  0.4437637142969367  0.8337021153574667
  0.8659507386320597  0.4427830415223346  0.8338876196952323
  0.2131454122479472  0.7835112021765651  0.8349002988860218
  0.5418262202881595  0.7920387247440439  0.8344889219103643
  0.1247421463089452  0.2076906392385781  0.1643052729027018
  0.0117243426964184  0.6604063921138733  0.4991709568950936
  0.6709598239221721  0.0074453847014044  0.9982536703231638
  0.1067685651574377  0.8869735493257497  0.6697426166527276
  0.4437315883858409  0.5557075575415382  0.6689314157928269
  0.7757500784824801  0.2216455435624293  0.6672033463111944
  0.5559129698639220  0.4463026509991721  0.3303570099441889
  0.2225690433008168  0.7785953376595112  0.3319772864862205
  0.8891789481664656  0.1170109592873270  0.3352220002223136
  0.0042658236817405  0.6717816857798180  0.9995968043219382
  0.3401187204051843  0.3384451800463503  0.0021415620255751
  0.3286414247956242  0.9962082302264091  0.7363435751699589
  0.9932504645822408  0.0103328595651222  0.7436515387506587
  0.8859646698178300  0.7770410764888022  0.5992966654969191
  0.5611785502130059  0.7887353720718848  0.5954837396501060
  0.2252637354644055  0.7742654965375732  0.5945946687797662
  0.8958725992362486  0.1044951200357305  0.5964282264717964
  0.5633996178031483  0.4425611325032441  0.5928631396427434
  0.2189147204015254  0.4434425724606539  0.6071336111235270
  0.6556327029475536  0.9850609464623536  0.7394720826586656
  0.5377817078407824  0.1021931532138093  0.5917784891292186
  0.8920405494888303  0.4614750332426701  0.5956856285115562
  0.0108109528083125  0.3377427835575177  0.7445170579189683
  0.3297357343915024  0.6768889922433677  0.7422922920795957
  0.6603032134998219  0.3441016396689370  0.7391503958469605
 -0.0038914486192671  0.6561132861580584  0.7415447766478993
  0.2181701478311371  0.1171160235850286  0.5990253600286074
  0.6621442581530607  0.6623484097410995  0.7371445511118617
  0.1072404339492695  0.2212994588889792  0.9287435506230706
  0.4477197006693268  0.2303786933875498  0.9323743991084432
  0.7917541365210888  0.2400185593443745  0.9286375770562526
  0.1233648416060150  0.5536679349821416  0.9278282717045928
  0.4533863824974322  0.5739640036969204  0.9238444746706895
  0.7648942009352423  0.5472551305920903  0.9264489686364191
  0.1221883320695655  0.9094440530076622  0.9273351501646413
  0.3287227989399278  0.3222791022509729  0.7440933413741858
  0.7767350727703886  0.8933024054168621  0.4058189227298980
  0.9071893570619403  0.1213561547618293  0.0762682134179524
  0.1082391411244535  0.9029706752244062  0.4106979023680172
  0.2141654230724285  0.0978559909772262  0.0732167031913979
  0.5632208424253281  0.1153193119621874  0.0681855793930602
  0.4308621250382318  0.8817993229989042  0.9268316423968399
  0.2324711429909992  0.4487333776831972  0.0707823516024562
  0.5735220929854172  0.4603525456825705  0.0717840758624945
  0.8809064873663837  0.4334778489708856  0.0735624691382427
  0.2417546090938965  0.7894516577001571  0.0723953450265715
  0.5545291997201205  0.7748507509406420  0.0712804200282605
  0.8866191794105140  0.7908645971265192  0.0724095136168690
  0.0087468505106600  1.0005914329162682  0.2610740489339535
  0.3261433082691001  0.9966555833485762  0.2613641499381943
  0.4541026424008446  0.8955058938915713  0.3996585780209126
  0.6571673869998625  0.9988647960756010  0.2551565771146477
  0.3187560844694255  0.3281270106854736  0.2559801268122507
  0.6796645263969202  0.3368625492742518  0.2594249323380231
  0.9909754382412417  0.6679195937182999  0.2634230532930449
  0.3483462048761458  0.6670210176494729  0.2550857718889605
  0.6770789557233354  0.6871213951155072  0.2594278132949219
  0.1297065537607407  0.2362490314666744  0.4028703063281013
  0.4384889110833353  0.2098054734311920  0.4012967652423280
  0.7662455017593844  0.2290797292690785  0.4050985675519261
  0.1145226264656186  0.5551391348674738  0.4000402491014438
  0.4457746699168200  0.5682916847057637  0.4007261986357579
  0.7938822742944847  0.5660823634332699  0.4091766008988410
  0.9923919410782255  0.3325859709460262  0.2626675494453445
  0.7807745771591927  0.8998450631285532  0.9291884692480016
Cartesian
  0.0000000000000000  0.0000000000000000  0.0000000000000000
  0.0000000000000000  0.0000000000000000  0.0000000000000000
  0.0000000000000000  0.0000000000000000  0.0000000000000000
  0.0000000000000000  0.0000000000000000  0.0000000000000000
  0.0000000000000000  0.0000000000000000  0.0000000000000000
  0.0000000000000000  0.0000000000000000  0.0000000000000000
  0.0000000000000000  0.0000000000000000  0.0000000000000000
  0.0000000000000000  0.0000000000000000  0.0000000000000000
  0.0000000000000000  0.0000000000000000  0.0000000000000000
  0.0000000000000000  0.0000000000000000  0.0000000000000000
  0.0000000000000000  0.0000000000000000  0.0000000000000000
  0.0000000000000000  0.0000000000000000  0.0000000000000000
  0.0000000000000000  0.0000000000000000  0.0000000000000000
  0.0000000000000000  0.0000000000000000  0.0000000000000000
  0.0000000000000000  0.0000000000000000  0.0000000000000000
  0.0000000000000000  0.0000000000000000  0.0000000000000000
  0.0000000000000000  0.0000000000000000  0.0000000000000000
  0.0000000000000000  0.0000000000000000  0.0000000000000000
  0.0000000000000000  0.0000000000000000  0.0000000000000000
  0.0000000000000000  0.0000000000000000  0.0000000000000000
  0.0000000000000000  0.0000000000000000  0.0000000000000000
  0.0000000000000000  0.0000000000000000  0.0000000000000000
  0.0000000000000000  0.0000000000000000  0.0000000000000000
  0.0000000000000000  0.0000000000000000  0.0000000000000000
  0.0000000000000000  0.0000000000000000  0.0000000000000000
  0.0000000000000000  0.0000000000000000  0.0000000000000000
  0.0000000000000000  0.0000000000000000  0.0000000000000000
  0.0000000000000000  0.0000000000000000  0.0000000000000000
  0.0000000000000000  0.0000000000000000  0.0000000000000000
  0.0000000000000000  0.0000000000000000  0.0000000000000000
  0.0000000000000000  0.0000000000000000  0.0000000000000000
  0.0000000000000000  0.0000000000000000  0.0000000000000000
  0.0000000000000000  0.0000000000000000  0.0000000000000000
  0.0000000000000000  0.0000000000000000  0.0000000000000000
  0.0000000000000000  0.0000000000000000  0.0000000000000000
  0.0000000000000000  0.0000000000000000  0.0000000000000000
  0.0000000000000000  0.0000000000000000  0.0000000000000000
  0.0000000000000000  0.0000000000000000  0.0000000000000000
  0.0000000000000000  0.0000000000000000  0.0000000000000000
  0.0000000000000000  0.0000000000000000  0.0000000000000000
  0.0000000000000000  0.0000000000000000  0.0000000000000000
  0.0000000000000000  0.0000000000000000  0.0000000000000000
  0.0000000000000000  0.0000000000000000  0.0000000000000000
  0.0000000000000000  0.0000000000000000  0.0000000000000000
  0.0000000000000000  0.0000000000000000  0.0000000000000000
  0.0000000000000000  0.0000000000000000  0.0000000000000000
  0.0000000000000000  0.0000000000000000  0.0000000000000000
  0.0000000000000000  0.0000000000000000  0.0000000000000000
  0.0000000000000000  0.0000000000000000  0.0000000000000000
  0.0000000000000000  0.0000000000000000  0.0000000000000000
  0.0000000000000000  0.0000000000000000  0.0000000000000000
  0.0000000000000000  0.0000000000000000  0.0000000000000000
  0.0000000000000000  0.0000000000000000  0.0000000000000000
  0.0000000000000000  0.0000000000000000  0.0000000000000000
  0.0000000000000000  0.0000000000000000  0.0000000000000000
  0.0000000000000000  0.0000000000000000  0.0000000000000000
  0.0000000000000000  0.0000000000000000  0.0000000000000000
  0.0000000000000000  0.0000000000000000  0.0000000000000000
  0.0000000000000000  0.0000000000000000  0.0000000000000000
  0.0000000000000000  0.0000000000000000  0.0000000000000000
  0.0000000000000000  0.0000000000000000  0.0000000000000000
  0.0000000000000000  0.0000000000000000  0.0000000000000000
  0.0000000000000000  0.0000000000000000  0.0000000000000000
  0.0000000000000000  0.0000000000000000  0.0000000000000000
  0.0000000000000000  0.0000000000000000  0.0000000000000000
  0.0000000000000000  0.0000000000000000  0.0000000000000000
  0.0000000000000000  0.0000000000000000  0.0000000000000000
  0.0000000000000000  0.0000000000000000  0.0000000000000000
  0.0000000000000000  0.0000000000000000  0.0000000000000000
  0.0000000000000000  0.0000000000000000  0.0000000000000000
  0.0000000000000000  0.0000000000000000  0.0000000000000000
  0.0000000000000000  0.0000000000000000  0.0000000000000000
  0.0000000000000000  0.0000000000000000  0.0000000000000000
  0.0000000000000000  0.0000000000000000  0.0000000000000000
  0.0000000000000000  0.0000000000000000  0.0000000000000000
  0.0000000000000000  0.0000000000000000  0.0000000000000000
  0.0000000000000000  0.0000000000000000  0.0000000000000000
  0.0000000000000000  0.0000000000000000  0.0000000000000000
  0.0000000000000000  0.0000000000000000  0.0000000000000000
  0.0000000000000000  0.0000000000000000  0.0000000000000000
  0.0000000000000000  0.0000000000000000  0.0000000000000000
  0.0000000000000000  0.0000000000000000  0.0000000000000000
  0.0000000000000000  0.0000000000000000  0.0000000000000000
  0.0000000000000000  0.0000000000000000  0.0000000000000000
  0.0000000000000000  0.0000000000000000  0.0000000000000000
  0.0000000000000000  0.0000000000000000  0.0000000000000000
  0.0000000000000000  0.0000000000000000  0.0000000000000000
  0.0000000000000000  0.0000000000000000  0.0000000000000000
  0.0000000000000000  0.0000000000000000  0.0000000000000000
  0.0000000000000000  0.0000000000000000  0.0000000000000000
  0.0000000000000000  0.0000000000000000  0.0000000000000000
  0.0000000000000000  0.0000000000000000  0.0000000000000000
  0.0000000000000000  0.0000000000000000  0.0000000000000000
  0.0000000000000000  0.0000000000000000  0.0000000000000000
  0.0000000000000000  0.0000000000000000  0.0000000000000000
  0.0000000000000000  0.0000000000000000  0.0000000000000000
  0.0000000000000000  0.0000000000000000  0.0000000000000000
  0.0000000000000000  0.0000000000000000  0.0000000000000000
  0.0000000000000000  0.0000000000000000  0.0000000000000000
  0.0000000000000000  0.0000000000000000  0.0000000000000000
  0.0000000000000000  0.0000000000000000  0.0000000000000000
  0.0000000000000000  0.0000000000000000  0.0000000000000000
