Al Co Li Ni O 
 1.0000000000000000
     8.4908300834614785   -0.0147685238944017   -0.0224277601224295
    -4.2581988951131331    7.3449592503045826    0.0177735844253757
    -0.0372076155094063    0.0124406012090187   14.2022834369131683
 Al  Co  Li  Ni  O  
   9   9  21   9  54
Direct
  0.0065861431955950  0.3384262827446888  0.0045286345970771
  0.4419597935523344  0.2182649430842927  0.6681667242853989
  0.8891678162418620  0.7794784495406402  0.3352426137690099
  0.2205441883333433  0.4432696087776327  0.3344867338406821
  0.5523488718063777  0.1100732752033611  0.3295711600746613
  0.6716626214249910  0.6735601841297424  0.9952092538520840
  0.3383183080876073  0.0051041804152480  0.9997827650297219
  0.1102441025655588  0.5524337436406196  0.6643622759801491
  0.7770533161139536  0.8859296058402714  0.6678833480063440
  0.0063516547311635  0.0050796215266517  0.9997618614676578
  0.7765871322348855  0.5528596331064007  0.6681877138925145
  0.1081628720758231  0.2185240042404950  0.6671269986494189
  0.5530191037165048  0.7764412057727138  0.3319526414800288
  0.4428023464743546  0.8846538888150548  0.6644626154586766
  0.2195814798594804  0.1099894481116049  0.3318092089186279
  0.3380166188859292  0.6730282862652194  0.9994816188917097
  0.6709082535564772  0.3379330420579136  0.0001059895739222
  0.8855392774662482  0.4421752038932559  0.3357378732541889
  0.4412988263533714  0.5414991958015316  0.1680743666833437
  0.1171794425513796  0.8821899000665439  0.1656021633365647
  0.7812069488494565  0.2290869850378700  0.1671792993873333
  0.4324982016681510  0.8664477107641860  0.1665416019177432
  0.7838435635708099  0.8955228893907610  0.1660974719316947
  0.0271685397682768  0.0427604940795313  0.5004028136919276
  0.3255809388791839  0.0020660895647462  0.4993251640270878
  0.3327326882223491  0.6536280468221825  0.5007605541539796
  0.7789652079764631  0.5366584870084529  0.1666112388901490
  0.6805133767762823  0.0134548639527984  0.5007458908565541
  0.6779895884611833  0.3413355286010233  0.5003755136909775
  0.6458661514397140  0.6457619963529447  0.4999363936142440
  0.1990072025420070  0.1008178511733011  0.8329425397192071
  0.8742628471325256  0.1085692001832481  0.8322025505640900
  0.2260210175007795  0.4451446190687305  0.8340928623360474
  0.5586046591448871  0.4433579668750767  0.8331529166401064
  0.8688268921237990  0.4435251010955605  0.8337870927829013
  0.2145760652387188  0.7850144363912485  0.8342083825653269
  0.5424712795281842  0.7908254204877275  0.8338352337010644
  0.1252387315879019  0.2081068637488511  0.1654528260921680
  0.0016533132352884  0.6626084608096993  0.4999792746266061
  0.6712779408184000  0.0072519124815180  0.9978262791237962
  0.1068475572306358  0.8831349405638279  0.6686376548049925
  0.4427445533989515  0.5504523550371239  0.6653668393424773
  0.7759610143284554  0.2203078409836774  0.6668975410000726
  0.5521004349685592  0.4414315619723219  0.3329936812603645
  0.2196189452754611  0.7744420246369751  0.3311759147884654
  0.8867353041705239  0.1117915507420069  0.3349141325028153
  0.0030972529457092  0.6700438995938359  0.9995749088155581
  0.3405772306394979  0.3382857530161594  0.0021708110359273
  0.3292872123489129  0.9932165475594467  0.7364280884288715
  0.9917345890774369  0.0090608016474931  0.7420531056570030
  0.8858146251937544  0.7760678647590704  0.5969919635658800
  0.5611898814418327  0.7859358180611251  0.5903219157510897
  0.2279717918670987  0.7689000920822576  0.5892657431706437
  0.8929517936285938  0.1040062345614914  0.5948169735404102
  0.5599251991682701  0.4376302552833500  0.5942965360542917
  0.2233045818885095  0.4429980983915150  0.5981764777682079
  0.6581211116802024  0.9848836500744712  0.7375881314839697
  0.5410326691317675  0.1041758062699616  0.5927336126590248
  0.8904873222265348  0.4554513345413937  0.5942635338857849
  0.0105912626222974  0.3389211401257230  0.7407626385624045
  0.3317939559608160  0.6692830135779843  0.7376916497854658
  0.6611049856544030  0.3387685330216203  0.7396735048363324
  0.0022681744263358  0.6595849642931623  0.7386542485462709
  0.2177455978914304  0.1063906695009460  0.5989703252932800
  0.6597884918063106  0.6612811077445016  0.7357734433290301
  0.1118167433475892  0.2237744432757495  0.9294749928593008
  0.4453247771731219  0.2284966796427754  0.9316857632712199
  0.7908203600917034  0.2348599432875989  0.9289134485719567
  0.1185100988710353  0.5512585191062805  0.9275992967835197
  0.4524850385300816  0.5718019919060082  0.9235132231230412
  0.7679734711874686  0.5500297477452858  0.9259728574464964
  0.1196116645891733  0.9045337759541249  0.9274422869401594
  0.3276646560061991  0.3203862129943990  0.7419009496944109
  0.7783487582827059  0.8893512055810159  0.4058482966483084
  0.9060349754388166  0.1200498249658338  0.0764444325637099
  0.1063415315170087  0.8959389566559611  0.4089874441889530
  0.2169077381299069  0.0981055522680924  0.0736153279557217
  0.5616278021222999  0.1121183020008921  0.0684175554801029
  0.4305388084984683  0.8829251700954440  0.9254510328747334
  0.2316665407285446  0.4468793777520451  0.0712682188258371
  0.5691302712654012  0.4587029259102455  0.0712158176132391
  0.8839992605495015  0.4354867200463585  0.0737944663853756
  0.2372803864670334  0.7862291254150554  0.0716547509754297
  0.5571526251940558  0.7794818658766126  0.0701119678703001
  0.8850371351942378  0.7857005218704490  0.0715319378789964
  0.0053008143003828  0.9934647529513720  0.2582828598355284
  0.3300755106461022  0.9922993191045670  0.2604670632536841
  0.4473269849291812  0.8873697290381977  0.4026064728678679
  0.6631751902580312  1.0001507187076990  0.2591379173709282
  0.3191721888608746  0.3279873087317533  0.2609794353846935
  0.6756288363472800  0.3311333390073972  0.2602386246271731
  0.9908269273254176  0.6644804898946572  0.2630569988566745
  0.3432596967911507  0.6599636113650255  0.2592610307008524
  0.6734126315111607  0.6781801519610449  0.2598334385385391
  0.1140026005433804  0.2216481938717440  0.4016281998525861
  0.4365706254460315  0.2064846282672074  0.4025835207774545
  0.7639830855605259  0.2246200699795875  0.4073822689264673
  0.1144954728234784  0.5592670148114706  0.4029627468327351
  0.4425567974214624  0.5650615166953874  0.4055538061611508
  0.7870437793476281  0.5627255520461562  0.4094661744510445
  0.9946590755127570  0.3312395662779636  0.2664974040543218
  0.7792825894638228  0.8980911085720306  0.9283361018472888
Cartesian
  0.0000000000000000  0.0000000000000000  0.0000000000000000
  0.0000000000000000  0.0000000000000000  0.0000000000000000
  0.0000000000000000  0.0000000000000000  0.0000000000000000
  0.0000000000000000  0.0000000000000000  0.0000000000000000
  0.0000000000000000  0.0000000000000000  0.0000000000000000
  0.0000000000000000  0.0000000000000000  0.0000000000000000
  0.0000000000000000  0.0000000000000000  0.0000000000000000
  0.0000000000000000  0.0000000000000000  0.0000000000000000
  0.0000000000000000  0.0000000000000000  0.0000000000000000
  0.0000000000000000  0.0000000000000000  0.0000000000000000
  0.0000000000000000  0.0000000000000000  0.0000000000000000
  0.0000000000000000  0.0000000000000000  0.0000000000000000
  0.0000000000000000  0.0000000000000000  0.0000000000000000
  0.0000000000000000  0.0000000000000000  0.0000000000000000
  0.0000000000000000  0.0000000000000000  0.0000000000000000
  0.0000000000000000  0.0000000000000000  0.0000000000000000
  0.0000000000000000  0.0000000000000000  0.0000000000000000
  0.0000000000000000  0.0000000000000000  0.0000000000000000
  0.0000000000000000  0.0000000000000000  0.0000000000000000
  0.0000000000000000  0.0000000000000000  0.0000000000000000
  0.0000000000000000  0.0000000000000000  0.0000000000000000
  0.0000000000000000  0.0000000000000000  0.0000000000000000
  0.0000000000000000  0.0000000000000000  0.0000000000000000
  0.0000000000000000  0.0000000000000000  0.0000000000000000
  0.0000000000000000  0.0000000000000000  0.0000000000000000
  0.0000000000000000  0.0000000000000000  0.0000000000000000
  0.0000000000000000  0.0000000000000000  0.0000000000000000
  0.0000000000000000  0.0000000000000000  0.0000000000000000
  0.0000000000000000  0.0000000000000000  0.0000000000000000
  0.0000000000000000  0.0000000000000000  0.0000000000000000
  0.0000000000000000  0.0000000000000000  0.0000000000000000
  0.0000000000000000  0.0000000000000000  0.0000000000000000
  0.0000000000000000  0.0000000000000000  0.0000000000000000
  0.0000000000000000  0.0000000000000000  0.0000000000000000
  0.0000000000000000  0.0000000000000000  0.0000000000000000
  0.0000000000000000  0.0000000000000000  0.0000000000000000
  0.0000000000000000  0.0000000000000000  0.0000000000000000
  0.0000000000000000  0.0000000000000000  0.0000000000000000
  0.0000000000000000  0.0000000000000000  0.0000000000000000
  0.0000000000000000  0.0000000000000000  0.0000000000000000
  0.0000000000000000  0.0000000000000000  0.0000000000000000
  0.0000000000000000  0.0000000000000000  0.0000000000000000
  0.0000000000000000  0.0000000000000000  0.0000000000000000
  0.0000000000000000  0.0000000000000000  0.0000000000000000
  0.0000000000000000  0.0000000000000000  0.0000000000000000
  0.0000000000000000  0.0000000000000000  0.0000000000000000
  0.0000000000000000  0.0000000000000000  0.0000000000000000
  0.0000000000000000  0.0000000000000000  0.0000000000000000
  0.0000000000000000  0.0000000000000000  0.0000000000000000
  0.0000000000000000  0.0000000000000000  0.0000000000000000
  0.0000000000000000  0.0000000000000000  0.0000000000000000
  0.0000000000000000  0.0000000000000000  0.0000000000000000
  0.0000000000000000  0.0000000000000000  0.0000000000000000
  0.0000000000000000  0.0000000000000000  0.0000000000000000
  0.0000000000000000  0.0000000000000000  0.0000000000000000
  0.0000000000000000  0.0000000000000000  0.0000000000000000
  0.0000000000000000  0.0000000000000000  0.0000000000000000
  0.0000000000000000  0.0000000000000000  0.0000000000000000
  0.0000000000000000  0.0000000000000000  0.0000000000000000
  0.0000000000000000  0.0000000000000000  0.0000000000000000
  0.0000000000000000  0.0000000000000000  0.0000000000000000
  0.0000000000000000  0.0000000000000000  0.0000000000000000
  0.0000000000000000  0.0000000000000000  0.0000000000000000
  0.0000000000000000  0.0000000000000000  0.0000000000000000
  0.0000000000000000  0.0000000000000000  0.0000000000000000
  0.0000000000000000  0.0000000000000000  0.0000000000000000
  0.0000000000000000  0.0000000000000000  0.0000000000000000
  0.0000000000000000  0.0000000000000000  0.0000000000000000
  0.0000000000000000  0.0000000000000000  0.0000000000000000
  0.0000000000000000  0.0000000000000000  0.0000000000000000
  0.0000000000000000  0.0000000000000000  0.0000000000000000
  0.0000000000000000  0.0000000000000000  0.0000000000000000
  0.0000000000000000  0.0000000000000000  0.0000000000000000
  0.0000000000000000  0.0000000000000000  0.0000000000000000
  0.0000000000000000  0.0000000000000000  0.0000000000000000
  0.0000000000000000  0.0000000000000000  0.0000000000000000
  0.0000000000000000  0.0000000000000000  0.0000000000000000
  0.0000000000000000  0.0000000000000000  0.0000000000000000
  0.0000000000000000  0.0000000000000000  0.0000000000000000
  0.0000000000000000  0.0000000000000000  0.0000000000000000
  0.0000000000000000  0.0000000000000000  0.0000000000000000
  0.0000000000000000  0.0000000000000000  0.0000000000000000
  0.0000000000000000  0.0000000000000000  0.0000000000000000
  0.0000000000000000  0.0000000000000000  0.0000000000000000
  0.0000000000000000  0.0000000000000000  0.0000000000000000
  0.0000000000000000  0.0000000000000000  0.0000000000000000
  0.0000000000000000  0.0000000000000000  0.0000000000000000
  0.0000000000000000  0.0000000000000000  0.0000000000000000
  0.0000000000000000  0.0000000000000000  0.0000000000000000
  0.0000000000000000  0.0000000000000000  0.0000000000000000
  0.0000000000000000  0.0000000000000000  0.0000000000000000
  0.0000000000000000  0.0000000000000000  0.0000000000000000
  0.0000000000000000  0.0000000000000000  0.0000000000000000
  0.0000000000000000  0.0000000000000000  0.0000000000000000
  0.0000000000000000  0.0000000000000000  0.0000000000000000
  0.0000000000000000  0.0000000000000000  0.0000000000000000
  0.0000000000000000  0.0000000000000000  0.0000000000000000
  0.0000000000000000  0.0000000000000000  0.0000000000000000
  0.0000000000000000  0.0000000000000000  0.0000000000000000
  0.0000000000000000  0.0000000000000000  0.0000000000000000
  0.0000000000000000  0.0000000000000000  0.0000000000000000
  0.0000000000000000  0.0000000000000000  0.0000000000000000
