Al Co Li Ni O 
 1.0000000000000000
     8.4908300834614785   -0.0147685238944017   -0.0224277601224295
    -4.2581988951131331    7.3449592503045826    0.0177735844253757
    -0.0372076155094063    0.0124406012090187   14.2022834369131683
 Al  Co  Li  Ni  O  
   9   9  21   9  54
Direct
  0.0059072463191430  0.3393622562998669  0.0034386072290547
  0.4429806018377453  0.2211333495625966  0.6665984604537175
  0.8916262121089377  0.7824883946069463  0.3354675041235637
  0.2242198519743626  0.4463475739622456  0.3262139466096868
  0.5549045154719988  0.1139864367015654  0.3279895761519722
  0.6721200154922492  0.6731500781581957  0.9963018558157866
  0.3375051733907632  0.0046089103877411  0.9999993309696149
  0.1087056971244424  0.5537523201650485  0.6685134653058443
  0.7763396751883418  0.8881496669622657  0.6695880800935333
  0.0046127445581716  0.0047805591802862  0.9996618552170642
  0.7763069262323876  0.5544409281503440  0.6682595192398990
  0.1067895879226980  0.2184263046227102  0.6704112642272519
  0.5566589014257706  0.7811288014399997  0.3308121496163466
  0.4410645855803172  0.8850062830761309  0.6652020920844971
  0.2229578810083588  0.1136817162022268  0.3321623427107326
  0.3374954783983912  0.6717124261050910  1.0000770517121369
  0.6716351289892987  0.3389394864843493  0.0002457328814778
  0.8876464347437074  0.4453923643138458  0.3345127511765814
  0.4463945941847923  0.5458641819112727  0.1657506273704073
  0.1167970480180676  0.8811643415717920  0.1657122473439684
  0.7811227041685157  0.2284672472800087  0.1662224419774762
  0.4363137559076984  0.8692348052954610  0.1654164570944427
  0.7830081497096729  0.8978287069146418  0.1658246170009186
  0.0292272420645134  0.0458731268001284  0.5003464005694788
  0.3285975285013384 -0.0066323937391675  0.4981367012283742
  0.2827659023014850  0.5540831616827637  0.4941854934579152
  0.7817043263577825  0.5392119479560481  0.1659190828881119
  0.6686772056476806  0.0057604005657074  0.5008095993761688
  0.6795621338825536  0.3444517807599700  0.5000428303757161
  0.6459754998465919  0.6508789262113149  0.5000573602021811
  0.2012632912096565  0.1029079237544704  0.8338498135156815
  0.8756111928572335  0.1116465337359364  0.8333732951161380
  0.2273067628298341  0.4464592229031707  0.8350859426153254
  0.5574176971712980  0.4432954331957638  0.8336656394914528
  0.8662671838740883  0.4427414896249817  0.8339317949203570
  0.2139644712305803  0.7838914748943060  0.8346689494383895
  0.5418713241671015  0.7913854971997527  0.8342569701843311
  0.1249913370706519  0.2077946812797530  0.1647421621694281
  0.0068711643608485  0.6625831913614910  0.4996250065208309
  0.6709652773396679  0.0072437901358830  0.9982740939889836
  0.1064722831648115  0.8848672007431282  0.6692367374618078
  0.4425720365224151  0.5523892918846079  0.6684112364859419
  0.7752566490125038  0.2204152409051441  0.6670352327543240
  0.5545688483520870  0.4443415794847261  0.3309502769382986
  0.2221320358941273  0.7776599487000052  0.3314639815788821
  0.8888520889927686  0.1154717397467824  0.3347021971739995
  0.0043179723000616  0.6715978551412939  0.9995610071232891
  0.3401400632866863  0.3382776434840458  0.0020579289654378
  0.3296976573243299  0.9938565470202567  0.7360788351466289
  0.9915856116999063  0.0099898299400226  0.7436768180771830
  0.8837923277325160  0.7748517313708680  0.5983744398979812
  0.5589381578787399  0.7857117629829264  0.5937755762628397
  0.2269507247526476  0.7684683015779344  0.5918589234806058
  0.8946876881454864  0.1026685872718680  0.5961594284182479
  0.5630838915837295  0.4403053391549519  0.5934015975327133
  0.2184656197223081  0.4391025611496304  0.6049024207791835
  0.6547051650390188  0.9830639694222197  0.7386109224755308
  0.5373868214421955  0.1008539710614795  0.5916350240546449
  0.8913795828991269  0.4602609055350610  0.5955466408699573
  0.0108953972310888  0.3371915389882116  0.7438618002119399
  0.3294728960771873  0.6740748969220961  0.7413706460398561
  0.6607409032455928  0.3434016790842455  0.7394528149067242
 -0.0017853633459311  0.6580303373421699  0.7402810595901183
  0.2160939089962085  0.1106870985397671  0.5998874586363729
  0.6613922235677626  0.6609722261891392  0.7368140805705883
  0.1071341704132386  0.2211086828282154  0.9286253140353044
  0.4478101359315890  0.2302309035294433  0.9323525197407146
  0.7917118013731901  0.2397558218663589  0.9285230239730013
  0.1233376671533419  0.5534990848483571  0.9276062297863844
  0.4534306268387396  0.5737058246939232  0.9237993570378918
  0.7649601863691614  0.5471042415634402  0.9263633315211584
  0.1222223007666679  0.9092037091078123  0.9272520544669306
  0.3273340079332179  0.3192653350280920  0.7438561456817597
  0.7769258097302709  0.8918118184025721  0.4054059060855598
  0.9072138928549942  0.1212753833700554  0.0762516689300343
  0.1073665773362356  0.9005323500026322  0.4101867861201933
  0.2143036530436098  0.0979185389461564  0.0730458183327296
  0.5632510521744337  0.1150799882520235  0.0681798357622842
  0.4309614038490771  0.8815190634653592  0.9267474391667316
  0.2324696812910919  0.4485672487169569  0.0706516601709021
  0.5735311510040919  0.4600807671221228  0.0717962342024250
  0.8810188457050653  0.4333274358655394  0.0734278748073844
  0.2417785112253611  0.7891868698132051  0.0723356609386449
  0.5543692798548140  0.7746435931007221  0.0714294428969699
  0.8866277000036407  0.7906371879376004  0.0721961146869207
  0.0091006018651777  0.9967870452184630  0.2591572662475494
  0.3273431878699429  0.9952156197616475  0.2609439090385055
  0.4540452577404996  0.8936905753774669  0.4003715026849482
  0.6603823094336995  0.9999680229860590  0.2563005338018794
  0.3180012226971940  0.3273395097608380  0.2568925592272723
  0.6805723486189780  0.3349468389666526  0.2592558766693864
  0.9897813942963760  0.6655606533946536  0.2631128673820590
  0.3478389634537331  0.6650339482509638  0.2564575042331193
  0.6757372487140095  0.6854561178854002  0.2594888928180989
  0.1234336553471310  0.2289228660001761  0.4010948875336980
  0.4364499739371472  0.2070869028763701  0.4013368817598759
  0.7650019501494211  0.2292252445132846  0.4060306660175036
  0.1144306128376876  0.5568594494203126  0.4007619521875041
  0.4445689371795289  0.5683413034362143  0.4023402427147156
  0.7926179393655309  0.5647884076290781  0.4089917826332508
  0.9933979919227364  0.3327223757005220  0.2640250512010802
  0.7806540358061501  0.8996195509487230  0.9292119708811435
Cartesian
  0.0000000000000000  0.0000000000000000  0.0000000000000000
  0.0000000000000000  0.0000000000000000  0.0000000000000000
  0.0000000000000000  0.0000000000000000  0.0000000000000000
  0.0000000000000000  0.0000000000000000  0.0000000000000000
  0.0000000000000000  0.0000000000000000  0.0000000000000000
  0.0000000000000000  0.0000000000000000  0.0000000000000000
  0.0000000000000000  0.0000000000000000  0.0000000000000000
  0.0000000000000000  0.0000000000000000  0.0000000000000000
  0.0000000000000000  0.0000000000000000  0.0000000000000000
  0.0000000000000000  0.0000000000000000  0.0000000000000000
  0.0000000000000000  0.0000000000000000  0.0000000000000000
  0.0000000000000000  0.0000000000000000  0.0000000000000000
  0.0000000000000000  0.0000000000000000  0.0000000000000000
  0.0000000000000000  0.0000000000000000  0.0000000000000000
  0.0000000000000000  0.0000000000000000  0.0000000000000000
  0.0000000000000000  0.0000000000000000  0.0000000000000000
  0.0000000000000000  0.0000000000000000  0.0000000000000000
  0.0000000000000000  0.0000000000000000  0.0000000000000000
  0.0000000000000000  0.0000000000000000  0.0000000000000000
  0.0000000000000000  0.0000000000000000  0.0000000000000000
  0.0000000000000000  0.0000000000000000  0.0000000000000000
  0.0000000000000000  0.0000000000000000  0.0000000000000000
  0.0000000000000000  0.0000000000000000  0.0000000000000000
  0.0000000000000000  0.0000000000000000  0.0000000000000000
  0.0000000000000000  0.0000000000000000  0.0000000000000000
  0.0000000000000000  0.0000000000000000  0.0000000000000000
  0.0000000000000000  0.0000000000000000  0.0000000000000000
  0.0000000000000000  0.0000000000000000  0.0000000000000000
  0.0000000000000000  0.0000000000000000  0.0000000000000000
  0.0000000000000000  0.0000000000000000  0.0000000000000000
  0.0000000000000000  0.0000000000000000  0.0000000000000000
  0.0000000000000000  0.0000000000000000  0.0000000000000000
  0.0000000000000000  0.0000000000000000  0.0000000000000000
  0.0000000000000000  0.0000000000000000  0.0000000000000000
  0.0000000000000000  0.0000000000000000  0.0000000000000000
  0.0000000000000000  0.0000000000000000  0.0000000000000000
  0.0000000000000000  0.0000000000000000  0.0000000000000000
  0.0000000000000000  0.0000000000000000  0.0000000000000000
  0.0000000000000000  0.0000000000000000  0.0000000000000000
  0.0000000000000000  0.0000000000000000  0.0000000000000000
  0.0000000000000000  0.0000000000000000  0.0000000000000000
  0.0000000000000000  0.0000000000000000  0.0000000000000000
  0.0000000000000000  0.0000000000000000  0.0000000000000000
  0.0000000000000000  0.0000000000000000  0.0000000000000000
  0.0000000000000000  0.0000000000000000  0.0000000000000000
  0.0000000000000000  0.0000000000000000  0.0000000000000000
  0.0000000000000000  0.0000000000000000  0.0000000000000000
  0.0000000000000000  0.0000000000000000  0.0000000000000000
  0.0000000000000000  0.0000000000000000  0.0000000000000000
  0.0000000000000000  0.0000000000000000  0.0000000000000000
  0.0000000000000000  0.0000000000000000  0.0000000000000000
  0.0000000000000000  0.0000000000000000  0.0000000000000000
  0.0000000000000000  0.0000000000000000  0.0000000000000000
  0.0000000000000000  0.0000000000000000  0.0000000000000000
  0.0000000000000000  0.0000000000000000  0.0000000000000000
  0.0000000000000000  0.0000000000000000  0.0000000000000000
  0.0000000000000000  0.0000000000000000  0.0000000000000000
  0.0000000000000000  0.0000000000000000  0.0000000000000000
  0.0000000000000000  0.0000000000000000  0.0000000000000000
  0.0000000000000000  0.0000000000000000  0.0000000000000000
  0.0000000000000000  0.0000000000000000  0.0000000000000000
  0.0000000000000000  0.0000000000000000  0.0000000000000000
  0.0000000000000000  0.0000000000000000  0.0000000000000000
  0.0000000000000000  0.0000000000000000  0.0000000000000000
  0.0000000000000000  0.0000000000000000  0.0000000000000000
  0.0000000000000000  0.0000000000000000  0.0000000000000000
  0.0000000000000000  0.0000000000000000  0.0000000000000000
  0.0000000000000000  0.0000000000000000  0.0000000000000000
  0.0000000000000000  0.0000000000000000  0.0000000000000000
  0.0000000000000000  0.0000000000000000  0.0000000000000000
  0.0000000000000000  0.0000000000000000  0.0000000000000000
  0.0000000000000000  0.0000000000000000  0.0000000000000000
  0.0000000000000000  0.0000000000000000  0.0000000000000000
  0.0000000000000000  0.0000000000000000  0.0000000000000000
  0.0000000000000000  0.0000000000000000  0.0000000000000000
  0.0000000000000000  0.0000000000000000  0.0000000000000000
  0.0000000000000000  0.0000000000000000  0.0000000000000000
  0.0000000000000000  0.0000000000000000  0.0000000000000000
  0.0000000000000000  0.0000000000000000  0.0000000000000000
  0.0000000000000000  0.0000000000000000  0.0000000000000000
  0.0000000000000000  0.0000000000000000  0.0000000000000000
  0.0000000000000000  0.0000000000000000  0.0000000000000000
  0.0000000000000000  0.0000000000000000  0.0000000000000000
  0.0000000000000000  0.0000000000000000  0.0000000000000000
  0.0000000000000000  0.0000000000000000  0.0000000000000000
  0.0000000000000000  0.0000000000000000  0.0000000000000000
  0.0000000000000000  0.0000000000000000  0.0000000000000000
  0.0000000000000000  0.0000000000000000  0.0000000000000000
  0.0000000000000000  0.0000000000000000  0.0000000000000000
  0.0000000000000000  0.0000000000000000  0.0000000000000000
  0.0000000000000000  0.0000000000000000  0.0000000000000000
  0.0000000000000000  0.0000000000000000  0.0000000000000000
  0.0000000000000000  0.0000000000000000  0.0000000000000000
  0.0000000000000000  0.0000000000000000  0.0000000000000000
  0.0000000000000000  0.0000000000000000  0.0000000000000000
  0.0000000000000000  0.0000000000000000  0.0000000000000000
  0.0000000000000000  0.0000000000000000  0.0000000000000000
  0.0000000000000000  0.0000000000000000  0.0000000000000000
  0.0000000000000000  0.0000000000000000  0.0000000000000000
  0.0000000000000000  0.0000000000000000  0.0000000000000000
  0.0000000000000000  0.0000000000000000  0.0000000000000000
  0.0000000000000000  0.0000000000000000  0.0000000000000000
