Al Co Li Ni O 
 1.0000000000000000
     8.4908300834614785   -0.0147685238944017   -0.0224277601224295
    -4.2581988951131331    7.3449592503045826    0.0177735844253757
    -0.0372076155094063    0.0124406012090187   14.2022834369131683
 Al  Co  Li  Ni  O  
   9   9  21   9  54
Direct
  0.0065961012941048  0.3384843087739376  0.0045504389206887
  0.4421125138203427  0.2188106646097545  0.6683337452934518
  0.8891555749869902  0.7794206023639331  0.3351136667487128
  0.2205685326006496  0.4432810186540588  0.3338715391633523
  0.5538886065755559  0.1131468997173478  0.3284710456901609
  0.6716558308097181  0.6735340259192121  0.9952007766777283
  0.3383919776080762  0.0051601107876174  0.9997732745369661
  0.1093956489212194  0.5521766065585022  0.6651697393753346
  0.7780375847691260  0.8864995666863349  0.6683356249289780
  0.0063788043693126  0.0050795858620411  0.9997570335580938
  0.7764770705821264  0.5530562271032607  0.6684634923780707
  0.1083619340256094  0.2194570311960928  0.6670690341646865
  0.5541904086617386  0.7780891953949920  0.3312034820303376
  0.4440082587278621  0.8865607795473172  0.6658182996178110
  0.2197031665066495  0.1100731048471058  0.3316395846301840
  0.3380478021519449  0.6729856039732146  0.9995612024582751
  0.6708757913069553  0.3379236379268261  0.0001188716120456
  0.8846446725413311  0.4414820790136788  0.3351993581009886
  0.4414143942047048  0.5415466897949994  0.1680318095055358
  0.1174721517634363  0.8819836760180446  0.1653426888464975
  0.7813018008737437  0.2291743967439277  0.1671630594311331
  0.4328976611385454  0.8666845764793191  0.1664340844503375
  0.7838065527435423  0.8955114001747225  0.1660479873925484
  0.0272814690233863  0.0431302080130134  0.5003234864871141
  0.3256324569611860  0.0025936544660874  0.4992168238474575
  0.3332960131918646  0.6481841128801553  0.4994272403090506
  0.7790291806653696  0.5366248954538527  0.1666504530363482
  0.6832630444202729  0.0161925555672177  0.5007229724361716
  0.6776470710788786  0.3413034984712065  0.5004909096816741
  0.6459655406101974  0.6457192097711784  0.4998988555648017
  0.1989462822356094  0.1009084548348294  0.8330434641715984
  0.8738758463698280  0.1088387632991012  0.8324431550642053
  0.2260702251716505  0.4452348279137221  0.8341070967483344
  0.5585205247107371  0.4433802320361337  0.8331826067926307
  0.8688583923077892  0.4437042466239951  0.8338000537003221
  0.2145219909952822  0.7850020972865953  0.8344316470726920
  0.5424658648062550  0.7907041012431386  0.8339498049667915
  0.1254203008596930  0.2082099188329994  0.1654164865773697
 -0.0012836225101742  0.6629308196438080  0.5000262502856448
  0.6713350644778218  0.0073306511714302  0.9978698632526418
  0.1058955954797486  0.8844800585956609  0.6696335805203039
  0.4433048147573525  0.5511989720623464  0.6656713366763936
  0.7759279476050397  0.2205121722589994  0.6668998188067106
  0.5519392255712137  0.4414675910833464  0.3329915103555205
  0.2197634520057224  0.7753729698843992  0.3302340248191244
  0.8868571656698775  0.1118715199009987  0.3346553667143178
  0.0030682555397701  0.6700280606717866  0.9995667082063532
  0.3406055075847208  0.3383274264175120  0.0021678720655518
  0.3288217901521487  0.9939799433337297  0.7370689966584275
  0.9923746684095309  0.0077838946275104  0.7417891397227393
  0.8864143543894393  0.7761880039093966  0.5973631369256953
  0.5623618497743404  0.7873879195596748  0.5907648929674304
  0.2224848217520630  0.7740808081004182  0.5932411770865196
  0.8935626587539063  0.1046425273755504  0.5949464649225276
  0.5596232927394151  0.4376264679037737  0.5944069831825647
  0.2233296866390877  0.4452533543013811  0.5978257774422772
  0.6589434421801803  0.9857936499133452  0.7385165084168688
  0.5406799355676990  0.1039657096443167  0.5928708499440396
  0.8906875870928311  0.4557804634411293  0.5943059236752082
  0.0106325294164294  0.3389444699603681  0.7409108687345207
  0.3317969193524579  0.6692549507310578  0.7376964106178243
  0.6610275686398337  0.3388106242638645  0.7397237422379759
  0.0011776940358048  0.6596882845750417  0.7392150621062283
  0.2169908167537548  0.1058651888260534  0.5992899912403398
  0.6597205353601697  0.6609089790312803  0.7361451402243577
  0.1117651377507316  0.2238084184542928  0.9294064805633110
  0.4453265361730123  0.2285219491504472  0.9316423661650726
  0.7908513631950065  0.2348757089193569  0.9289072604370151
  0.1184826496024250  0.5512884944446143  0.9275782835459240
  0.4524753938397053  0.5717943657608777  0.9235165687231491
  0.7679745253914593  0.5500527618926343  0.9259422569530139
  0.1195999334672828  0.9045295912937149  0.9273744657514644
  0.3274328229565001  0.3202907211614421  0.7419908805957693
  0.7785218634640730  0.8894164846581211  0.4057743173217198
  0.9061029394268583  0.1200666454696694  0.0763981447352152
  0.1064238554626591  0.8959230151733922  0.4089713768442174
  0.2169345404834874  0.0981363849524417  0.0735447378754908
  0.5616282395063754  0.1121337718809105  0.0684383998872352
  0.4306620876447407  0.8830436617114678  0.9254621658001996
  0.2317134746095422  0.4468834798903916  0.0712634866582790
  0.5691760127046281  0.4587604692499422  0.0712140998953321
  0.8840696891548809  0.4355347843184699  0.0737916190720050
  0.2373024183183060  0.7862943221276774  0.0716399487015664
  0.5571970271544414  0.7794805084842668  0.0701162083489585
  0.8850887662827975  0.7856741069882632  0.0714826475553019
  0.0054735105914999  0.9934968913758769  0.2582965552359202
  0.3294874452249568  0.9931355946566199  0.2595711619784210
  0.4487191210291562  0.8905686184256413  0.4010745253384992
  0.6647616021283989  1.0005923919758981  0.2580896704993899
  0.3192693724464704  0.3280595135866727  0.2608816381021993
  0.6752410155091688  0.3311285886281928  0.2598700617554817
  0.9902067612066380  0.6646341089279227  0.2625509068376264
  0.3435698101311616  0.6602881122786021  0.2589732617634604
  0.6734451256843786  0.6778912662615291  0.2597271360511796
  0.1141147974433137  0.2218645779639243  0.4015321807149145
  0.4364294163339040  0.2073312935771119  0.4025077686772126
  0.7648799344657184  0.2255682481587915  0.4074078478079068
  0.1136406028261827  0.5595811956465757  0.4022697538700396
  0.4422495613566106  0.5657349370370379  0.4055466498098816
  0.7867109986428316  0.5627542408863854  0.4094565244760181
  0.9945120992704279  0.3309914960548860  0.2661895637241077
  0.7792223087553374  0.8981021081746356  0.9282979687245797
Cartesian
  0.0000000000000000  0.0000000000000000  0.0000000000000000
  0.0000000000000000  0.0000000000000000  0.0000000000000000
  0.0000000000000000  0.0000000000000000  0.0000000000000000
  0.0000000000000000  0.0000000000000000  0.0000000000000000
  0.0000000000000000  0.0000000000000000  0.0000000000000000
  0.0000000000000000  0.0000000000000000  0.0000000000000000
  0.0000000000000000  0.0000000000000000  0.0000000000000000
  0.0000000000000000  0.0000000000000000  0.0000000000000000
  0.0000000000000000  0.0000000000000000  0.0000000000000000
  0.0000000000000000  0.0000000000000000  0.0000000000000000
  0.0000000000000000  0.0000000000000000  0.0000000000000000
  0.0000000000000000  0.0000000000000000  0.0000000000000000
  0.0000000000000000  0.0000000000000000  0.0000000000000000
  0.0000000000000000  0.0000000000000000  0.0000000000000000
  0.0000000000000000  0.0000000000000000  0.0000000000000000
  0.0000000000000000  0.0000000000000000  0.0000000000000000
  0.0000000000000000  0.0000000000000000  0.0000000000000000
  0.0000000000000000  0.0000000000000000  0.0000000000000000
  0.0000000000000000  0.0000000000000000  0.0000000000000000
  0.0000000000000000  0.0000000000000000  0.0000000000000000
  0.0000000000000000  0.0000000000000000  0.0000000000000000
  0.0000000000000000  0.0000000000000000  0.0000000000000000
  0.0000000000000000  0.0000000000000000  0.0000000000000000
  0.0000000000000000  0.0000000000000000  0.0000000000000000
  0.0000000000000000  0.0000000000000000  0.0000000000000000
  0.0000000000000000  0.0000000000000000  0.0000000000000000
  0.0000000000000000  0.0000000000000000  0.0000000000000000
  0.0000000000000000  0.0000000000000000  0.0000000000000000
  0.0000000000000000  0.0000000000000000  0.0000000000000000
  0.0000000000000000  0.0000000000000000  0.0000000000000000
  0.0000000000000000  0.0000000000000000  0.0000000000000000
  0.0000000000000000  0.0000000000000000  0.0000000000000000
  0.0000000000000000  0.0000000000000000  0.0000000000000000
  0.0000000000000000  0.0000000000000000  0.0000000000000000
  0.0000000000000000  0.0000000000000000  0.0000000000000000
  0.0000000000000000  0.0000000000000000  0.0000000000000000
  0.0000000000000000  0.0000000000000000  0.0000000000000000
  0.0000000000000000  0.0000000000000000  0.0000000000000000
  0.0000000000000000  0.0000000000000000  0.0000000000000000
  0.0000000000000000  0.0000000000000000  0.0000000000000000
  0.0000000000000000  0.0000000000000000  0.0000000000000000
  0.0000000000000000  0.0000000000000000  0.0000000000000000
  0.0000000000000000  0.0000000000000000  0.0000000000000000
  0.0000000000000000  0.0000000000000000  0.0000000000000000
  0.0000000000000000  0.0000000000000000  0.0000000000000000
  0.0000000000000000  0.0000000000000000  0.0000000000000000
  0.0000000000000000  0.0000000000000000  0.0000000000000000
  0.0000000000000000  0.0000000000000000  0.0000000000000000
  0.0000000000000000  0.0000000000000000  0.0000000000000000
  0.0000000000000000  0.0000000000000000  0.0000000000000000
  0.0000000000000000  0.0000000000000000  0.0000000000000000
  0.0000000000000000  0.0000000000000000  0.0000000000000000
  0.0000000000000000  0.0000000000000000  0.0000000000000000
  0.0000000000000000  0.0000000000000000  0.0000000000000000
  0.0000000000000000  0.0000000000000000  0.0000000000000000
  0.0000000000000000  0.0000000000000000  0.0000000000000000
  0.0000000000000000  0.0000000000000000  0.0000000000000000
  0.0000000000000000  0.0000000000000000  0.0000000000000000
  0.0000000000000000  0.0000000000000000  0.0000000000000000
  0.0000000000000000  0.0000000000000000  0.0000000000000000
  0.0000000000000000  0.0000000000000000  0.0000000000000000
  0.0000000000000000  0.0000000000000000  0.0000000000000000
  0.0000000000000000  0.0000000000000000  0.0000000000000000
  0.0000000000000000  0.0000000000000000  0.0000000000000000
  0.0000000000000000  0.0000000000000000  0.0000000000000000
  0.0000000000000000  0.0000000000000000  0.0000000000000000
  0.0000000000000000  0.0000000000000000  0.0000000000000000
  0.0000000000000000  0.0000000000000000  0.0000000000000000
  0.0000000000000000  0.0000000000000000  0.0000000000000000
  0.0000000000000000  0.0000000000000000  0.0000000000000000
  0.0000000000000000  0.0000000000000000  0.0000000000000000
  0.0000000000000000  0.0000000000000000  0.0000000000000000
  0.0000000000000000  0.0000000000000000  0.0000000000000000
  0.0000000000000000  0.0000000000000000  0.0000000000000000
  0.0000000000000000  0.0000000000000000  0.0000000000000000
  0.0000000000000000  0.0000000000000000  0.0000000000000000
  0.0000000000000000  0.0000000000000000  0.0000000000000000
  0.0000000000000000  0.0000000000000000  0.0000000000000000
  0.0000000000000000  0.0000000000000000  0.0000000000000000
  0.0000000000000000  0.0000000000000000  0.0000000000000000
  0.0000000000000000  0.0000000000000000  0.0000000000000000
  0.0000000000000000  0.0000000000000000  0.0000000000000000
  0.0000000000000000  0.0000000000000000  0.0000000000000000
  0.0000000000000000  0.0000000000000000  0.0000000000000000
  0.0000000000000000  0.0000000000000000  0.0000000000000000
  0.0000000000000000  0.0000000000000000  0.0000000000000000
  0.0000000000000000  0.0000000000000000  0.0000000000000000
  0.0000000000000000  0.0000000000000000  0.0000000000000000
  0.0000000000000000  0.0000000000000000  0.0000000000000000
  0.0000000000000000  0.0000000000000000  0.0000000000000000
  0.0000000000000000  0.0000000000000000  0.0000000000000000
  0.0000000000000000  0.0000000000000000  0.0000000000000000
  0.0000000000000000  0.0000000000000000  0.0000000000000000
  0.0000000000000000  0.0000000000000000  0.0000000000000000
  0.0000000000000000  0.0000000000000000  0.0000000000000000
  0.0000000000000000  0.0000000000000000  0.0000000000000000
  0.0000000000000000  0.0000000000000000  0.0000000000000000
  0.0000000000000000  0.0000000000000000  0.0000000000000000
  0.0000000000000000  0.0000000000000000  0.0000000000000000
  0.0000000000000000  0.0000000000000000  0.0000000000000000
  0.0000000000000000  0.0000000000000000  0.0000000000000000
  0.0000000000000000  0.0000000000000000  0.0000000000000000
