Al Co Li Ni O 
 1.0000000000000000
     8.4908300834614785   -0.0147685238944017   -0.0224277601224295
    -4.2581988951131331    7.3449592503045826    0.0177735844253757
    -0.0372076155094063    0.0124406012090187   14.2022834369131683
 Al  Co  Li  Ni  O  
   9   9  21   9  54
Direct
  0.0067987654147714  0.3386953533538986  0.0046779249628344
  0.4420968608593867  0.2185946659461564  0.6683704245624469
  0.8893923288762695  0.7798553017355233  0.3351136351232142
  0.2212860882944483  0.4438451410184713  0.3343621995171446
  0.5525300058200600  0.1107269581816297  0.3297944371433061
  0.6718017263667165  0.6736941553326333  0.9950618683686088
  0.3378558961096942  0.0046216374250747  0.9997424680420154
  0.1099982383089966  0.5522189502309089  0.6641527709834777
  0.7769428409641038  0.8865226778329715  0.6679610538469944
  0.0045592908700556  0.0032543102195604  0.9997995005102638
  0.7767450978791999  0.5529840943847191  0.6679545114128304
  0.1083551296028133  0.2200462582579874  0.6672046001220195
  0.5558768403865459  0.7769300810846432  0.3319715636895850
  0.4441073389742131  0.8866952152110131  0.6646386979283961
  0.2213722469771611  0.1104081995324506  0.3315721340038493
  0.3362834929792981  0.6712411444592161  0.9994608067300135
  0.6713122903203370  0.3382055156418318  0.0001492062636217
  0.8860026981343125  0.4434090586199844  0.3359123197341560
  0.4410959764607866  0.5407888310908291  0.1681866683022264
  0.1173923717394487  0.8826613683973292  0.1657239567770290
  0.7813512742130656  0.2295700313085760  0.1671881797325199
  0.4312811933912786  0.8651718118803161  0.1666130395675438
  0.7846598839976977  0.8956997671591012  0.1661607754913277
  0.0278767097756898  0.0438804301642080  0.5003092770561892
  0.3253562034889370  0.0030293178749474  0.4990666435230012
  0.3338547120730127  0.6573730356703323  0.5007076589469577
  0.7789435926200952  0.5360276678861808  0.1667052286769746
  0.6820064870571727  0.0148449187979338  0.5008428434213101
  0.6784709147967193  0.3417089101389479  0.5002831070235132
  0.6452144254154107  0.6444807533316138  0.4998736818332716
  0.1974377396681177  0.1000050431503183  0.8328483840380017
  0.8737663344233938  0.1082990643795938  0.8320402580107640
  0.2258288087562406  0.4450705255934437  0.8341332973986368
  0.5587575024647861  0.4432605870415712  0.8331842931969362
  0.8681117630338309  0.4433092235694219  0.8338312486764039
  0.2145424096783444  0.7854784346858352  0.8342637601457952
  0.5418020935581183  0.7914884166205098  0.8338707113613495
  0.1259252777657380  0.2069097258167929  0.1653405958513972
  0.0010351991623452  0.6623952741179195  0.5000251463968155
  0.6704462063690642  0.0066917107342164  0.9974111436814682
  0.1069479054229917  0.8838304512894980  0.6691448368967485
  0.4428008479559224  0.5511796019517874  0.6650271895372555
  0.7763467857394417  0.2204549973323253  0.6668550640864054
  0.5521013395657235  0.4410706697906690  0.3330651444200328
  0.2202889025050255  0.7747921249773243  0.3307693262472924
  0.8878225714303625  0.1124092856305765  0.3350558873083003
  0.0029681031504296  0.6698097199360545  0.9995692734479107
  0.3400562428780133  0.3374425434972395  0.0025848231822678
  0.3290502052751377  0.9921187571372556  0.7369460054552377
  0.9916574789979934  0.0101314776755572  0.7422930951516379
  0.8847489621430996  0.7733127881623078  0.5974839374307379
  0.5615527745072981  0.7869085388734121  0.5902084696291467
  0.2297198600075916  0.7693882792697266  0.5893406406443376
  0.8957473750419710  0.1033030745878847  0.5947586554847533
  0.5613870504288130  0.4377983513047567  0.5941429785951229
  0.2234776571552501  0.4426120549905477  0.5981532126322548
  0.6542438569605480  0.9800720340264847  0.7378644904944665
  0.5368864563987614  0.0995194347567576  0.5922526530383507
  0.8902781783626565  0.4594467744515356  0.5942239545783252
  0.0140369951754238  0.3393557893542933  0.7411701743457614
  0.3327896875624887  0.6715778468945359  0.7371321246515380
  0.6618897509838036  0.3426111619673621  0.7399681216995759
  0.0019700967503624  0.6594267106681427  0.7382491713205468
  0.2156141755321954  0.1053694132898002  0.5997951655888230
  0.6600621797519466  0.6590032131801564  0.7350539418309410
  0.1107347141682880  0.2215871575541684  0.9300717522554507
  0.4476836265861622  0.2308388813401123  0.9323695388177172
  0.7915829016290276  0.2363994228756710  0.9289898091530659
  0.1222203813825544  0.5509635565938922  0.9271031991522634
  0.4516641053432764  0.5733319918059223  0.9233045619745965
  0.7645434822645287  0.5460259263091063  0.9259495365613332
  0.1202863789177330  0.9087476338269768  0.9273315541100260
  0.3250431681527743  0.3187025754708941  0.7422566529613519
  0.7774420384386361  0.8889702368853423  0.4060303654300128
  0.9076255154362657  0.1193180604099240  0.0765914648272812
  0.1065628873452625  0.8977968068318348  0.4089809176702701
  0.2163230318561205  0.0973694590055842  0.0737717004876544
  0.5638436476566895  0.1144610050025250  0.0677995928409842
  0.4297048894869135  0.8821544403358388  0.9252653679359497
  0.2329700160012536  0.4475053374526112  0.0714123104092366
  0.5708721258321958  0.4596258129056281  0.0712565338321127
  0.8799496237691004  0.4320567115313169  0.0737923550019772
  0.2413181548152252  0.7868690069605364  0.0717145505516825
  0.5551529858130806  0.7787785647750454  0.0695532797204734
  0.8849715356854234  0.7898234636465418  0.0719030825368776
  0.0072711445943411  0.9933477524886384  0.2581798311492562
  0.3289445934823759  0.9916064302754819  0.2603944882903519
  0.4487265460450232  0.8865490288247102  0.4018160050269586
  0.6627393523248629  0.9980992653580429  0.2594640355575848
  0.3146425285043506  0.3243550699230228  0.2604488348458815
  0.6791479658464539  0.3320487417382408  0.2603727374613740
  0.9888978361396924  0.6629954016418864  0.2631942095116315
  0.3444187895710655  0.6599716596132056  0.2587219279894413
  0.6734372761454281  0.6825713304039525  0.2594125487885179
  0.1132821757686600  0.2200832661361432  0.4013769080401346
  0.4324275543511291  0.2014674325043586  0.4032841719457140
  0.7626421271976582  0.2260480447784445  0.4077887522031959
  0.1120371196046435  0.5589280779568283  0.4025263233558931
  0.4433458035850251  0.5693993562127559  0.4058384129057586
  0.7900491247899668  0.5628882214509403  0.4095096818842309
  0.9925434729687624  0.3312071429183163  0.2668093162361629
  0.7798002491687654  0.8994311682385360  0.9280925388012236
Cartesian
  0.0000000000000000  0.0000000000000000  0.0000000000000000
  0.0000000000000000  0.0000000000000000  0.0000000000000000
  0.0000000000000000  0.0000000000000000  0.0000000000000000
  0.0000000000000000  0.0000000000000000  0.0000000000000000
  0.0000000000000000  0.0000000000000000  0.0000000000000000
  0.0000000000000000  0.0000000000000000  0.0000000000000000
  0.0000000000000000  0.0000000000000000  0.0000000000000000
  0.0000000000000000  0.0000000000000000  0.0000000000000000
  0.0000000000000000  0.0000000000000000  0.0000000000000000
  0.0000000000000000  0.0000000000000000  0.0000000000000000
  0.0000000000000000  0.0000000000000000  0.0000000000000000
  0.0000000000000000  0.0000000000000000  0.0000000000000000
  0.0000000000000000  0.0000000000000000  0.0000000000000000
  0.0000000000000000  0.0000000000000000  0.0000000000000000
  0.0000000000000000  0.0000000000000000  0.0000000000000000
  0.0000000000000000  0.0000000000000000  0.0000000000000000
  0.0000000000000000  0.0000000000000000  0.0000000000000000
  0.0000000000000000  0.0000000000000000  0.0000000000000000
  0.0000000000000000  0.0000000000000000  0.0000000000000000
  0.0000000000000000  0.0000000000000000  0.0000000000000000
  0.0000000000000000  0.0000000000000000  0.0000000000000000
  0.0000000000000000  0.0000000000000000  0.0000000000000000
  0.0000000000000000  0.0000000000000000  0.0000000000000000
  0.0000000000000000  0.0000000000000000  0.0000000000000000
  0.0000000000000000  0.0000000000000000  0.0000000000000000
  0.0000000000000000  0.0000000000000000  0.0000000000000000
  0.0000000000000000  0.0000000000000000  0.0000000000000000
  0.0000000000000000  0.0000000000000000  0.0000000000000000
  0.0000000000000000  0.0000000000000000  0.0000000000000000
  0.0000000000000000  0.0000000000000000  0.0000000000000000
  0.0000000000000000  0.0000000000000000  0.0000000000000000
  0.0000000000000000  0.0000000000000000  0.0000000000000000
  0.0000000000000000  0.0000000000000000  0.0000000000000000
  0.0000000000000000  0.0000000000000000  0.0000000000000000
  0.0000000000000000  0.0000000000000000  0.0000000000000000
  0.0000000000000000  0.0000000000000000  0.0000000000000000
  0.0000000000000000  0.0000000000000000  0.0000000000000000
  0.0000000000000000  0.0000000000000000  0.0000000000000000
  0.0000000000000000  0.0000000000000000  0.0000000000000000
  0.0000000000000000  0.0000000000000000  0.0000000000000000
  0.0000000000000000  0.0000000000000000  0.0000000000000000
  0.0000000000000000  0.0000000000000000  0.0000000000000000
  0.0000000000000000  0.0000000000000000  0.0000000000000000
  0.0000000000000000  0.0000000000000000  0.0000000000000000
  0.0000000000000000  0.0000000000000000  0.0000000000000000
  0.0000000000000000  0.0000000000000000  0.0000000000000000
  0.0000000000000000  0.0000000000000000  0.0000000000000000
  0.0000000000000000  0.0000000000000000  0.0000000000000000
  0.0000000000000000  0.0000000000000000  0.0000000000000000
  0.0000000000000000  0.0000000000000000  0.0000000000000000
  0.0000000000000000  0.0000000000000000  0.0000000000000000
  0.0000000000000000  0.0000000000000000  0.0000000000000000
  0.0000000000000000  0.0000000000000000  0.0000000000000000
  0.0000000000000000  0.0000000000000000  0.0000000000000000
  0.0000000000000000  0.0000000000000000  0.0000000000000000
  0.0000000000000000  0.0000000000000000  0.0000000000000000
  0.0000000000000000  0.0000000000000000  0.0000000000000000
  0.0000000000000000  0.0000000000000000  0.0000000000000000
  0.0000000000000000  0.0000000000000000  0.0000000000000000
  0.0000000000000000  0.0000000000000000  0.0000000000000000
  0.0000000000000000  0.0000000000000000  0.0000000000000000
  0.0000000000000000  0.0000000000000000  0.0000000000000000
  0.0000000000000000  0.0000000000000000  0.0000000000000000
  0.0000000000000000  0.0000000000000000  0.0000000000000000
  0.0000000000000000  0.0000000000000000  0.0000000000000000
  0.0000000000000000  0.0000000000000000  0.0000000000000000
  0.0000000000000000  0.0000000000000000  0.0000000000000000
  0.0000000000000000  0.0000000000000000  0.0000000000000000
  0.0000000000000000  0.0000000000000000  0.0000000000000000
  0.0000000000000000  0.0000000000000000  0.0000000000000000
  0.0000000000000000  0.0000000000000000  0.0000000000000000
  0.0000000000000000  0.0000000000000000  0.0000000000000000
  0.0000000000000000  0.0000000000000000  0.0000000000000000
  0.0000000000000000  0.0000000000000000  0.0000000000000000
  0.0000000000000000  0.0000000000000000  0.0000000000000000
  0.0000000000000000  0.0000000000000000  0.0000000000000000
  0.0000000000000000  0.0000000000000000  0.0000000000000000
  0.0000000000000000  0.0000000000000000  0.0000000000000000
  0.0000000000000000  0.0000000000000000  0.0000000000000000
  0.0000000000000000  0.0000000000000000  0.0000000000000000
  0.0000000000000000  0.0000000000000000  0.0000000000000000
  0.0000000000000000  0.0000000000000000  0.0000000000000000
  0.0000000000000000  0.0000000000000000  0.0000000000000000
  0.0000000000000000  0.0000000000000000  0.0000000000000000
  0.0000000000000000  0.0000000000000000  0.0000000000000000
  0.0000000000000000  0.0000000000000000  0.0000000000000000
  0.0000000000000000  0.0000000000000000  0.0000000000000000
  0.0000000000000000  0.0000000000000000  0.0000000000000000
  0.0000000000000000  0.0000000000000000  0.0000000000000000
  0.0000000000000000  0.0000000000000000  0.0000000000000000
  0.0000000000000000  0.0000000000000000  0.0000000000000000
  0.0000000000000000  0.0000000000000000  0.0000000000000000
  0.0000000000000000  0.0000000000000000  0.0000000000000000
  0.0000000000000000  0.0000000000000000  0.0000000000000000
  0.0000000000000000  0.0000000000000000  0.0000000000000000
  0.0000000000000000  0.0000000000000000  0.0000000000000000
  0.0000000000000000  0.0000000000000000  0.0000000000000000
  0.0000000000000000  0.0000000000000000  0.0000000000000000
  0.0000000000000000  0.0000000000000000  0.0000000000000000
  0.0000000000000000  0.0000000000000000  0.0000000000000000
  0.0000000000000000  0.0000000000000000  0.0000000000000000
  0.0000000000000000  0.0000000000000000  0.0000000000000000
