Al Co Li Ni O 
 1.0000000000000000
     8.4908300834614785   -0.0147685238944017   -0.0224277601224295
    -4.2581988951131331    7.3449592503045826    0.0177735844253757
    -0.0372076155094063    0.0124406012090187   14.2022834369131683
 Al  Co  Li  Ni  O  
   9   9  21   9  54
Direct
  0.0058673081666281  0.3390061779494007  0.0032760414295944
  0.4429381756207817  0.2198664283248015  0.6669406376617127
  0.8900630824360322  0.7802940093537881  0.3349089222683139
  0.2235325952577316  0.4451210675977409  0.3321412898020822
  0.5540823751490874  0.1123283505786655  0.3289387596553166
  0.6719811790554245  0.6727242557044222  0.9964422030244711
  0.3374857407003111  0.0043066587109770  0.9998904203707180
  0.1089523977313107  0.5521700053317469  0.6665310382590508
  0.7764194580433340  0.8873123656340820  0.6686102633192174
  0.0045902928478699  0.0045750760468845  0.9996806563952990
  0.7762999282682674  0.5535373257294576  0.6680055482076732
  0.1077814542137496  0.2190846751309858  0.6683072738389608
  0.5558403314740892  0.7791899710623049  0.3317915009296079
  0.4416821250136688  0.8847543710095350  0.6647859778856644
  0.2212924490568692  0.1110009869309373  0.3319656083765130
  0.3375263311106086  0.6713629724364603  0.9999449732793902
  0.6716521030738574  0.3386002750327943  0.0001107442081777
  0.8866501344220775  0.4441846964906659  0.3350656267833912
  0.4439362006291716  0.5437217067631076  0.1669874064997866
  0.1159648482740042  0.8804646198662429  0.1656423841027405
  0.7812428833410926  0.2283783508686756  0.1667482726667866
  0.4350718875033835  0.8675984655484383  0.1660408545120607
  0.7829132467676775  0.8967594543462987  0.1658985564405497
  0.0276284094044571  0.0434434607495697  0.5003685327915363
  0.3279358141306891 -0.0032190785798881  0.4982478534769792
  0.3154084458720755  0.6251288432631853  0.5008389092594392
  0.7803729271322826  0.5370196851879382  0.1663032953741195
  0.6734348898314220  0.0093193576714894  0.5005977270073577
  0.6790383437276024  0.3427000904136440  0.5002821307301951
  0.6459331399158925  0.6468641647946091  0.4998969950017659
  0.1996215515173537  0.1021103741783942  0.8333281683194214
  0.8759990701178630  0.1108062162970434  0.8327384542118856
  0.2272080152300678  0.4457295468356539  0.8344350310994392
  0.5576677078035728  0.4434000795929818  0.8333882573464160
  0.8670657876087476  0.4433415646661507  0.8338058302407871
  0.2141742239384356  0.7837784300659715  0.8343071327167068
  0.5424454311173581  0.7905405467055140  0.8338456237981119
  0.1250233744640378  0.2086173355800574  0.1654874213135431
  0.0029939703215377  0.6627660688037176  0.4997577794551171
  0.6709701849262453  0.0069414892463169  0.9982074920106284
  0.1066333196437977  0.8839451593679625  0.6686200004274923
  0.4422153908408982  0.5509518286295234  0.6668276930866524
  0.7755043660795634  0.2198164284731878  0.6668012348871257
  0.5527553582719241  0.4427481600230402  0.3321311483903078
  0.2206706361986480  0.7758965226979331  0.3313605415370843
  0.8879441969881147  0.1135237185001260  0.3346135274621413
  0.0043236051352254  0.6712655401751253  0.9995434259853209
  0.3401080358968471  0.3379738434906972  0.0019263428852262
  0.3301402188352215  0.9923615090836514  0.7358098823274738
  0.9918866282277409  0.0106629619278721  0.7425430592154800
  0.8831425255076453  0.7735873229990647  0.5974557203754250
  0.5585554492510910  0.7857964468882020  0.5918171824790819
  0.2283044922502347  0.7669492976260363  0.5897787327353273
  0.8945510442994052  0.1019731615275801  0.5951697970290662
  0.5628061210948812  0.4388388538936338  0.5935770956488046
  0.2208902739666798  0.4408865220323275  0.6006517227904631
  0.6549609369191886  0.9817130085780549  0.7380011258847270
  0.5376741366803038  0.1004962712545130  0.5917007674764677
  0.8905676722661338  0.4593425134107056  0.5949892589761143
  0.0124247343461621  0.3374779026756823  0.7421656841538892
  0.3301314624015415  0.6721926711094223  0.7396222302540645
  0.6611987114603447  0.3430715031914381  0.7396043439600691
 -0.0001662976483020  0.6581459299695062  0.7390278759291540
  0.2161575722677892  0.1081678879159432  0.5992798561679060
  0.6612207602920480  0.6603797039589516  0.7360059435862641
  0.1069577705793354  0.2207573445958680  0.9284051491481579
  0.4478201474731490  0.2299978781206757  0.9322304560066207
  0.7918260135099443  0.2394844365571329  0.9282639399778289
  0.1233762405990804  0.5531768815015476  0.9272893720730914
  0.4534950199429768  0.5733262398819237  0.9236583719709197
  0.7650135367483113  0.5469196238531888  0.9263077198499332
  0.1222054142848810  0.9089480001458310  0.9271435491526704
  0.3263283417802085  0.3177586523805619  0.7429033677307165
  0.7768672331221580  0.8898923629062758  0.4053467955147603
  0.9071635105986835  0.1210693210684532  0.0762743421828215
  0.1062613041073677  0.8976230297656854  0.4094735884474324
  0.2143816684283381  0.0979104264010070  0.0730315787658982
  0.5632734191005053  0.1147937844505531  0.0680358860912692
  0.4309886437715723  0.8810407942918818  0.9265300321734741
  0.2324282334691365  0.4482116219333958  0.0705441044492186
  0.5733568800753329  0.4595631054381799  0.0718361082959546
  0.8809567504808068  0.4328512302217469  0.0733370280298315
  0.2418239175003034  0.7888389285652073  0.0722510188042138
  0.5540643491767634  0.7742104618720733  0.0715516637494594
  0.8866013003930511  0.7903654424707793  0.0721235369247355
  0.0082355299069124  0.9943012151884955  0.2583288008912528
  0.3275631675881988  0.9933581018308574  0.2609637625456209
  0.4536311276832304  0.8913980134389831  0.4022948258638803
  0.6607644596600420  0.9991853540211241  0.2574061103552297
  0.3163990823891797  0.3269087007596110  0.2591116070994450
  0.6795947921529323  0.3328506313621086  0.2597878502778737
  0.9871286399867920  0.6628235504507288  0.2627118615258647
  0.3462603972458800  0.6630214114603993  0.2585716645566709
  0.6732863190241800  0.6831604890519305  0.2598317775485261
  0.1186307549103468  0.2227513005254637  0.4011649313048763
  0.4344380765766218  0.2044483954006686  0.4018519414842026
  0.7641123587001042  0.2280890296295752  0.4067599720620004
  0.1134149736103255  0.5581591591128017  0.4021571850086874
  0.4430817872539318  0.5688941521226293  0.4052527382485694
  0.7905787689283210  0.5631394046592372  0.4090850484234641
  0.9940165242867001  0.3327354633188385  0.2657424932772367
  0.7806368703054689  0.8992396020235575  0.9292099429313135
Cartesian
  0.0000000000000000  0.0000000000000000  0.0000000000000000
  0.0000000000000000  0.0000000000000000  0.0000000000000000
  0.0000000000000000  0.0000000000000000  0.0000000000000000
  0.0000000000000000  0.0000000000000000  0.0000000000000000
  0.0000000000000000  0.0000000000000000  0.0000000000000000
  0.0000000000000000  0.0000000000000000  0.0000000000000000
  0.0000000000000000  0.0000000000000000  0.0000000000000000
  0.0000000000000000  0.0000000000000000  0.0000000000000000
  0.0000000000000000  0.0000000000000000  0.0000000000000000
  0.0000000000000000  0.0000000000000000  0.0000000000000000
  0.0000000000000000  0.0000000000000000  0.0000000000000000
  0.0000000000000000  0.0000000000000000  0.0000000000000000
  0.0000000000000000  0.0000000000000000  0.0000000000000000
  0.0000000000000000  0.0000000000000000  0.0000000000000000
  0.0000000000000000  0.0000000000000000  0.0000000000000000
  0.0000000000000000  0.0000000000000000  0.0000000000000000
  0.0000000000000000  0.0000000000000000  0.0000000000000000
  0.0000000000000000  0.0000000000000000  0.0000000000000000
  0.0000000000000000  0.0000000000000000  0.0000000000000000
  0.0000000000000000  0.0000000000000000  0.0000000000000000
  0.0000000000000000  0.0000000000000000  0.0000000000000000
  0.0000000000000000  0.0000000000000000  0.0000000000000000
  0.0000000000000000  0.0000000000000000  0.0000000000000000
  0.0000000000000000  0.0000000000000000  0.0000000000000000
  0.0000000000000000  0.0000000000000000  0.0000000000000000
  0.0000000000000000  0.0000000000000000  0.0000000000000000
  0.0000000000000000  0.0000000000000000  0.0000000000000000
  0.0000000000000000  0.0000000000000000  0.0000000000000000
  0.0000000000000000  0.0000000000000000  0.0000000000000000
  0.0000000000000000  0.0000000000000000  0.0000000000000000
  0.0000000000000000  0.0000000000000000  0.0000000000000000
  0.0000000000000000  0.0000000000000000  0.0000000000000000
  0.0000000000000000  0.0000000000000000  0.0000000000000000
  0.0000000000000000  0.0000000000000000  0.0000000000000000
  0.0000000000000000  0.0000000000000000  0.0000000000000000
  0.0000000000000000  0.0000000000000000  0.0000000000000000
  0.0000000000000000  0.0000000000000000  0.0000000000000000
  0.0000000000000000  0.0000000000000000  0.0000000000000000
  0.0000000000000000  0.0000000000000000  0.0000000000000000
  0.0000000000000000  0.0000000000000000  0.0000000000000000
  0.0000000000000000  0.0000000000000000  0.0000000000000000
  0.0000000000000000  0.0000000000000000  0.0000000000000000
  0.0000000000000000  0.0000000000000000  0.0000000000000000
  0.0000000000000000  0.0000000000000000  0.0000000000000000
  0.0000000000000000  0.0000000000000000  0.0000000000000000
  0.0000000000000000  0.0000000000000000  0.0000000000000000
  0.0000000000000000  0.0000000000000000  0.0000000000000000
  0.0000000000000000  0.0000000000000000  0.0000000000000000
  0.0000000000000000  0.0000000000000000  0.0000000000000000
  0.0000000000000000  0.0000000000000000  0.0000000000000000
  0.0000000000000000  0.0000000000000000  0.0000000000000000
  0.0000000000000000  0.0000000000000000  0.0000000000000000
  0.0000000000000000  0.0000000000000000  0.0000000000000000
  0.0000000000000000  0.0000000000000000  0.0000000000000000
  0.0000000000000000  0.0000000000000000  0.0000000000000000
  0.0000000000000000  0.0000000000000000  0.0000000000000000
  0.0000000000000000  0.0000000000000000  0.0000000000000000
  0.0000000000000000  0.0000000000000000  0.0000000000000000
  0.0000000000000000  0.0000000000000000  0.0000000000000000
  0.0000000000000000  0.0000000000000000  0.0000000000000000
  0.0000000000000000  0.0000000000000000  0.0000000000000000
  0.0000000000000000  0.0000000000000000  0.0000000000000000
  0.0000000000000000  0.0000000000000000  0.0000000000000000
  0.0000000000000000  0.0000000000000000  0.0000000000000000
  0.0000000000000000  0.0000000000000000  0.0000000000000000
  0.0000000000000000  0.0000000000000000  0.0000000000000000
  0.0000000000000000  0.0000000000000000  0.0000000000000000
  0.0000000000000000  0.0000000000000000  0.0000000000000000
  0.0000000000000000  0.0000000000000000  0.0000000000000000
  0.0000000000000000  0.0000000000000000  0.0000000000000000
  0.0000000000000000  0.0000000000000000  0.0000000000000000
  0.0000000000000000  0.0000000000000000  0.0000000000000000
  0.0000000000000000  0.0000000000000000  0.0000000000000000
  0.0000000000000000  0.0000000000000000  0.0000000000000000
  0.0000000000000000  0.0000000000000000  0.0000000000000000
  0.0000000000000000  0.0000000000000000  0.0000000000000000
  0.0000000000000000  0.0000000000000000  0.0000000000000000
  0.0000000000000000  0.0000000000000000  0.0000000000000000
  0.0000000000000000  0.0000000000000000  0.0000000000000000
  0.0000000000000000  0.0000000000000000  0.0000000000000000
  0.0000000000000000  0.0000000000000000  0.0000000000000000
  0.0000000000000000  0.0000000000000000  0.0000000000000000
  0.0000000000000000  0.0000000000000000  0.0000000000000000
  0.0000000000000000  0.0000000000000000  0.0000000000000000
  0.0000000000000000  0.0000000000000000  0.0000000000000000
  0.0000000000000000  0.0000000000000000  0.0000000000000000
  0.0000000000000000  0.0000000000000000  0.0000000000000000
  0.0000000000000000  0.0000000000000000  0.0000000000000000
  0.0000000000000000  0.0000000000000000  0.0000000000000000
  0.0000000000000000  0.0000000000000000  0.0000000000000000
  0.0000000000000000  0.0000000000000000  0.0000000000000000
  0.0000000000000000  0.0000000000000000  0.0000000000000000
  0.0000000000000000  0.0000000000000000  0.0000000000000000
  0.0000000000000000  0.0000000000000000  0.0000000000000000
  0.0000000000000000  0.0000000000000000  0.0000000000000000
  0.0000000000000000  0.0000000000000000  0.0000000000000000
  0.0000000000000000  0.0000000000000000  0.0000000000000000
  0.0000000000000000  0.0000000000000000  0.0000000000000000
  0.0000000000000000  0.0000000000000000  0.0000000000000000
  0.0000000000000000  0.0000000000000000  0.0000000000000000
  0.0000000000000000  0.0000000000000000  0.0000000000000000
  0.0000000000000000  0.0000000000000000  0.0000000000000000
