Al Co Li Ni O 
 1.0000000000000000
     8.4908300834614785   -0.0147685238944017   -0.0224277601224295
    -4.2581988951131331    7.3449592503045826    0.0177735844253757
    -0.0372076155094063    0.0124406012090187   14.2022834369131683
 Al  Co  Li  Ni  O  
   9   9  21   9  54
Direct
  0.0065954197967348  0.3384909816684433  0.0045450329621211
  0.4421758973905331  0.2188962854967738  0.6683149908518482
  0.8891354223545352  0.7794280323774101  0.3351301307166752
  0.2205838496727940  0.4433811919512693  0.3339367506247071
  0.5538287167476407  0.1131208790298551  0.3283795320585210
  0.6716648967014486  0.6735329658548893  0.9952037250086579
  0.3383978546814699  0.0051659409759187  0.9997764858821706
  0.1094183351152259  0.5522024612160610  0.6651706229304124
  0.7780453788323450  0.8865024185957380  0.6683546150311299
  0.0063750462888391  0.0050726676513859  0.9997631719655774
  0.7764761962882308  0.5530169102927457  0.6684598458410190
  0.1085224412042994  0.2196673237774472  0.6670274127335712
  0.5540236923501638  0.7780382003046925  0.3312806751142287
  0.4439780187364631  0.8865362906473263  0.6657910505799161
  0.2196659547120492  0.1100853876701313  0.3316571348599791
  0.3380459541933175  0.6729770031824295  0.9995715753998570
  0.6708721432776282  0.3379283723783659  0.0001138910871998
  0.8847774147055550  0.4415839745792330  0.3351491736991778
  0.4413882356151968  0.5415512966780138  0.1680338168200948
  0.1174602500595907  0.8819199501094362  0.1653145381508448
  0.7812972413280735  0.2291429941116273  0.1671395921191637
  0.4329141763567388  0.8666482996747040  0.1664340620727223
  0.7837341092030639  0.8955026398921002  0.1660448572314667
  0.0271566851880902  0.0429866544875097  0.5003119484661336
  0.3256904227303761  0.0025374008747151  0.4991870836010836
  0.3333702125397621  0.6447845959523137  0.4993871718451595
  0.7790310141648303  0.5366410443823582  0.1666394570462592
  0.6830757365292176  0.0160394423124888  0.5007241862252875
  0.6777550355321161  0.3413428026878193  0.5004873866874224
  0.6458054467800062  0.6458755410573114  0.4999056785924555
  0.1990653600669008  0.1009577336655583  0.8330668180578902
  0.8738658365802838  0.1088857402600225  0.8324750507409143
  0.2260964280135724  0.4452484965976261  0.8341112994269403
  0.5585292531851366  0.4433922701192248  0.8331844763764686
  0.8688226227907829  0.4436983645826529  0.8337950265109699
  0.2144525768979061  0.7849386935907083  0.8344509036196305
  0.5424667496498413  0.7906841940390084  0.8339636855040879
  0.1254071809454716  0.2082680022513380  0.1654293607991679
 -0.0012093166956743  0.6628611373887715  0.5000163672600774
  0.6713387078847727  0.0073324185271439  0.9978619225781072
  0.1059031162148120  0.8846405784956700  0.6697382369644611
  0.4433092364366353  0.5513193321837468  0.6656460281107861
  0.7759561712785331  0.2205550705818354  0.6668819711089787
  0.5519299729452141  0.4415733096270029  0.3329695748440128
  0.2198238132613199  0.7753084994177722  0.3303024823257439
  0.8868872826627500  0.1119011138843124  0.3346755761540089
  0.0030585801259754  0.6700274688265808  0.9995698390194638
  0.3405998758459602  0.3383188424268941  0.0021730936705110
  0.3288120312993859  0.9941357293431727  0.7371597811203126
  0.9926238400625932  0.0075067392988784  0.7417324425401075
  0.8864896432560274  0.7761675497324220  0.5974116026765874
  0.5617735806387059  0.7872424850402662  0.5906236316478137
  0.2226981041856571  0.7738402836350751  0.5930035834753140
  0.8936250579047306  0.1046372700172203  0.5949707108081054
  0.5595962343337531  0.4376698000329219  0.5943506231607595
  0.2233657910701147  0.4454878815188241  0.5978108325522357
  0.6590810900933975  0.9858643351449925  0.7386138567666788
  0.5406704007622327  0.1039422618022827  0.5928826942932615
  0.8907820403645856  0.4558413167387383  0.5943047191766579
  0.0106805878199410  0.3388681711204105  0.7409520746992343
  0.3317855706652071  0.6692940231529290  0.7376812873255394
  0.6610025288449201  0.3388335513179634  0.7397089691244308
  0.0009555700118636  0.6595111672084167  0.7393050007507039
  0.2171168132198580  0.1061352573323227  0.5991971442953863
  0.6597411986260054  0.6609152285442105  0.7361670744317144
  0.1117693371146633  0.2237918701197374  0.9293940727174047
  0.4453438560939511  0.2285280431663235  0.9316416861867554
  0.7908746411929515  0.2348946829184287  0.9288984010766100
  0.1185109208647790  0.5512891556014784  0.9275794484404289
  0.4524827075479540  0.5717921479790953  0.9235164133582489
  0.7679594568270000  0.5500290188476837  0.9259449819665176
  0.1196175994790944  0.9045466203538483  0.9273756649569380
  0.3274451118029240  0.3203308385918314  0.7419856610563120
  0.7784146729168838  0.8894135312199150  0.4057880956394088
  0.9061003653711083  0.1200560128423005  0.0763860533794814
  0.1064309672205374  0.8959388268425461  0.4089677583558788
  0.2168959165951911  0.0981402188743756  0.0735546862897716
  0.5616255169208122  0.1121501692999979  0.0684301626335435
  0.4306741101308210  0.8830372480836320  0.9254629644406571
  0.2317010851237742  0.4468856593820345  0.0712672266458682
  0.5691640540981497  0.4587611561016351  0.0712164713284075
  0.8840412709237425  0.4355189851276858  0.0737878148428714
  0.2373249359145712  0.7863045498402776  0.0716408619486390
  0.5571736500271232  0.7794513103389950  0.0701051763689899
  0.8850842033074573  0.7857000860081386  0.0714889353036842
  0.0054210535332770  0.9936322987621814  0.2583664798731490
  0.3294310718094814  0.9932790814706580  0.2594874665283697
  0.4482216272453718  0.8896973722155604  0.4014174855255227
  0.6646834413331824  1.0005381389573003  0.2579824941587189
  0.3192552215196659  0.3280657099969760  0.2608850895282310
  0.6752074200479790  0.3311408610777826  0.2597202168161460
  0.9901025200704584  0.6646829560372979  0.2624894040514679
  0.3435661922546080  0.6603000505555645  0.2589773992659310
  0.6734471987083571  0.6779265181317764  0.2597201369037376
  0.1143209312947129  0.2220204117783420  0.4016362504890451
  0.4364832396915324  0.2074516733133812  0.4025122534874385
  0.7649469918317725  0.2255558746666161  0.4073423683067393
  0.1140744085167331  0.5599298186361530  0.4024039586855519
  0.4421980675721706  0.5659449862277569  0.4055865644233653
  0.7866344643112395  0.5627345285508604  0.4094452010755616
  0.9945104639874495  0.3309513052458454  0.2661596227186487
  0.7792473220213307  0.8981038841468945  0.9282860177124576
Cartesian
  0.0000000000000000  0.0000000000000000  0.0000000000000000
  0.0000000000000000  0.0000000000000000  0.0000000000000000
  0.0000000000000000  0.0000000000000000  0.0000000000000000
  0.0000000000000000  0.0000000000000000  0.0000000000000000
  0.0000000000000000  0.0000000000000000  0.0000000000000000
  0.0000000000000000  0.0000000000000000  0.0000000000000000
  0.0000000000000000  0.0000000000000000  0.0000000000000000
  0.0000000000000000  0.0000000000000000  0.0000000000000000
  0.0000000000000000  0.0000000000000000  0.0000000000000000
  0.0000000000000000  0.0000000000000000  0.0000000000000000
  0.0000000000000000  0.0000000000000000  0.0000000000000000
  0.0000000000000000  0.0000000000000000  0.0000000000000000
  0.0000000000000000  0.0000000000000000  0.0000000000000000
  0.0000000000000000  0.0000000000000000  0.0000000000000000
  0.0000000000000000  0.0000000000000000  0.0000000000000000
  0.0000000000000000  0.0000000000000000  0.0000000000000000
  0.0000000000000000  0.0000000000000000  0.0000000000000000
  0.0000000000000000  0.0000000000000000  0.0000000000000000
  0.0000000000000000  0.0000000000000000  0.0000000000000000
  0.0000000000000000  0.0000000000000000  0.0000000000000000
  0.0000000000000000  0.0000000000000000  0.0000000000000000
  0.0000000000000000  0.0000000000000000  0.0000000000000000
  0.0000000000000000  0.0000000000000000  0.0000000000000000
  0.0000000000000000  0.0000000000000000  0.0000000000000000
  0.0000000000000000  0.0000000000000000  0.0000000000000000
  0.0000000000000000  0.0000000000000000  0.0000000000000000
  0.0000000000000000  0.0000000000000000  0.0000000000000000
  0.0000000000000000  0.0000000000000000  0.0000000000000000
  0.0000000000000000  0.0000000000000000  0.0000000000000000
  0.0000000000000000  0.0000000000000000  0.0000000000000000
  0.0000000000000000  0.0000000000000000  0.0000000000000000
  0.0000000000000000  0.0000000000000000  0.0000000000000000
  0.0000000000000000  0.0000000000000000  0.0000000000000000
  0.0000000000000000  0.0000000000000000  0.0000000000000000
  0.0000000000000000  0.0000000000000000  0.0000000000000000
  0.0000000000000000  0.0000000000000000  0.0000000000000000
  0.0000000000000000  0.0000000000000000  0.0000000000000000
  0.0000000000000000  0.0000000000000000  0.0000000000000000
  0.0000000000000000  0.0000000000000000  0.0000000000000000
  0.0000000000000000  0.0000000000000000  0.0000000000000000
  0.0000000000000000  0.0000000000000000  0.0000000000000000
  0.0000000000000000  0.0000000000000000  0.0000000000000000
  0.0000000000000000  0.0000000000000000  0.0000000000000000
  0.0000000000000000  0.0000000000000000  0.0000000000000000
  0.0000000000000000  0.0000000000000000  0.0000000000000000
  0.0000000000000000  0.0000000000000000  0.0000000000000000
  0.0000000000000000  0.0000000000000000  0.0000000000000000
  0.0000000000000000  0.0000000000000000  0.0000000000000000
  0.0000000000000000  0.0000000000000000  0.0000000000000000
  0.0000000000000000  0.0000000000000000  0.0000000000000000
  0.0000000000000000  0.0000000000000000  0.0000000000000000
  0.0000000000000000  0.0000000000000000  0.0000000000000000
  0.0000000000000000  0.0000000000000000  0.0000000000000000
  0.0000000000000000  0.0000000000000000  0.0000000000000000
  0.0000000000000000  0.0000000000000000  0.0000000000000000
  0.0000000000000000  0.0000000000000000  0.0000000000000000
  0.0000000000000000  0.0000000000000000  0.0000000000000000
  0.0000000000000000  0.0000000000000000  0.0000000000000000
  0.0000000000000000  0.0000000000000000  0.0000000000000000
  0.0000000000000000  0.0000000000000000  0.0000000000000000
  0.0000000000000000  0.0000000000000000  0.0000000000000000
  0.0000000000000000  0.0000000000000000  0.0000000000000000
  0.0000000000000000  0.0000000000000000  0.0000000000000000
  0.0000000000000000  0.0000000000000000  0.0000000000000000
  0.0000000000000000  0.0000000000000000  0.0000000000000000
  0.0000000000000000  0.0000000000000000  0.0000000000000000
  0.0000000000000000  0.0000000000000000  0.0000000000000000
  0.0000000000000000  0.0000000000000000  0.0000000000000000
  0.0000000000000000  0.0000000000000000  0.0000000000000000
  0.0000000000000000  0.0000000000000000  0.0000000000000000
  0.0000000000000000  0.0000000000000000  0.0000000000000000
  0.0000000000000000  0.0000000000000000  0.0000000000000000
  0.0000000000000000  0.0000000000000000  0.0000000000000000
  0.0000000000000000  0.0000000000000000  0.0000000000000000
  0.0000000000000000  0.0000000000000000  0.0000000000000000
  0.0000000000000000  0.0000000000000000  0.0000000000000000
  0.0000000000000000  0.0000000000000000  0.0000000000000000
  0.0000000000000000  0.0000000000000000  0.0000000000000000
  0.0000000000000000  0.0000000000000000  0.0000000000000000
  0.0000000000000000  0.0000000000000000  0.0000000000000000
  0.0000000000000000  0.0000000000000000  0.0000000000000000
  0.0000000000000000  0.0000000000000000  0.0000000000000000
  0.0000000000000000  0.0000000000000000  0.0000000000000000
  0.0000000000000000  0.0000000000000000  0.0000000000000000
  0.0000000000000000  0.0000000000000000  0.0000000000000000
  0.0000000000000000  0.0000000000000000  0.0000000000000000
  0.0000000000000000  0.0000000000000000  0.0000000000000000
  0.0000000000000000  0.0000000000000000  0.0000000000000000
  0.0000000000000000  0.0000000000000000  0.0000000000000000
  0.0000000000000000  0.0000000000000000  0.0000000000000000
  0.0000000000000000  0.0000000000000000  0.0000000000000000
  0.0000000000000000  0.0000000000000000  0.0000000000000000
  0.0000000000000000  0.0000000000000000  0.0000000000000000
  0.0000000000000000  0.0000000000000000  0.0000000000000000
  0.0000000000000000  0.0000000000000000  0.0000000000000000
  0.0000000000000000  0.0000000000000000  0.0000000000000000
  0.0000000000000000  0.0000000000000000  0.0000000000000000
  0.0000000000000000  0.0000000000000000  0.0000000000000000
  0.0000000000000000  0.0000000000000000  0.0000000000000000
  0.0000000000000000  0.0000000000000000  0.0000000000000000
  0.0000000000000000  0.0000000000000000  0.0000000000000000
  0.0000000000000000  0.0000000000000000  0.0000000000000000
