Al Co Li Ni O 
 1.0000000000000000
     8.4908300834614785   -0.0147685238944017   -0.0224277601224295
    -4.2581988951131331    7.3449592503045826    0.0177735844253757
    -0.0372076155094063    0.0124406012090187   14.2022834369131683
 Al  Co  Li  Ni  O  
   9   9  21   9  54
Direct
  0.0065758757318061  0.3384076249207595  0.0045483695912754
  0.4419217813157237  0.2181642617614175  0.6683333041314866
  0.8892149725020784  0.7794535795595926  0.3351796562533664
  0.2205071350325308  0.4431774418081850  0.3344286558244061
  0.5526865768421806  0.1106681004964724  0.3295156897692954
  0.6716677001510594  0.6735735233536628  0.9952013794769137
  0.3383102510157298  0.0051116619537156  0.9997737509611794
  0.1101270144008031  0.5524174375342639  0.6644084852238361
  0.7770655893651848  0.8859425980905388  0.6678707495069542
  0.0063549584658768  0.0050900830462200  0.9997487690337291
  0.7766458556422190  0.5529402136271723  0.6682820622456210
  0.1080269829386731  0.2186546528352022  0.6671800524552477
  0.5533181689402557  0.7766190711052440  0.3317837741505928
  0.4429677625574521  0.8850270404277468  0.6647351266233692
  0.2194992898360837  0.1097449548935409  0.3316227261167189
  0.3379987230383702  0.6730108811111681  0.9994733540347107
  0.6708946339200702  0.3379217961406419  0.0001319582660753
  0.8854338363599892  0.4420221104296375  0.3358019228888687
  0.4413695837969417  0.5414612704553186  0.1680786373398052
  0.1171302851603553  0.8824808060279402  0.1656828241167816
  0.7813191147364322  0.2292531229337454  0.1672406731708510
  0.4323893948319751  0.8665660817191242  0.1664764509111661
  0.7842282703443911  0.8956044289415930  0.1660878629194214
  0.0275014767172682  0.0432051948191235  0.5004114764448674
  0.3253822264933137  0.0028421993566545  0.4993716188349674
  0.3340449089270732  0.6574386128925455  0.4999972142010750
  0.7789637395920227  0.5366122043750045  0.1666428611828359
  0.6818834365775779  0.0146449625917786  0.5007631519939225
  0.6775295910227308  0.3411396868771479  0.5003621853415318
  0.6460441093543616  0.6450847028996151  0.4999188797016983
  0.1986333008204717  0.1007187946192998  0.8329428475196298
  0.8742984560220631  0.1084685522021392  0.8321824133503013
  0.2259635617917193  0.4451086022211215  0.8341044459816674
  0.5585858291670158  0.4433225499441286  0.8331835083818740
  0.8688813739549081  0.4434605976103935  0.8338659291880983
  0.2148086805606530  0.7852565952762345  0.8342339199950247
  0.5424892254437412  0.7908322080167629  0.8338547377344470
  0.1253011192013008  0.2078642123024786  0.1654078913550213
  0.0007745228002341  0.6628712788037212  0.5000704377813798
  0.6712737293491071  0.0072531190529007  0.9978396097393674
  0.1065060602481546  0.8832425030412476  0.6688953313270157
  0.4427175523276196  0.5504631110196715  0.6653278283409857
  0.7759137543844907  0.2203746042642222  0.6669063415205086
  0.5520106943160900  0.4414354710902391  0.3330615860615881
  0.2196774372998511  0.7745964441635212  0.3309508637017333
  0.8866229690618765  0.1116567927726254  0.3347365461790022
  0.0030851377631700  0.6700435247665736  0.9995678969004927
  0.3405950471335972  0.3383051608920384  0.0021667987758502
  0.3293110226422326  0.9932616785529327  0.7366135058397134
  0.9914264178956153  0.0090557801619344  0.7421701517158118
  0.8856758029886960  0.7760333183294754  0.5970155080213264
  0.5613420759590154  0.7862288111658648  0.5903759452095401
  0.2267394798161682  0.7701891993192805  0.5901311624445882
  0.8929479837956391  0.1040915185509057  0.5948149004077024
  0.5599236968857607  0.4374212111850989  0.5944168233224622
  0.2233299876615189  0.4433563352318949  0.5980653465184921
  0.6580772299258490  0.9849012096530739  0.7376704279080585
  0.5408627620391068  0.1041126631782106  0.5927697754880554
  0.8904585707793186  0.4555201427349912  0.5942850602981412
  0.0106183113689023  0.3390896456204806  0.7407626646741881
  0.3318676423254417  0.6692374423669123  0.7376226921004394
  0.6611887993356502  0.3387699770326789  0.7397582997389153
  0.0022784317433648  0.6599159069662541  0.7386718130231259
  0.2173571705677842  0.1058364416080368  0.5991961041898533
  0.6597242404368839  0.6612064908077470  0.7358134543697731
  0.1117862167494285  0.2237806779472500  0.9294613397195194
  0.4453646443734111  0.2285277829716053  0.9316897093499927
  0.7907850574690687  0.2348142880349778  0.9289293420553746
  0.1184509363916201  0.5512266636472419  0.9275786396475416
  0.4524771423716953  0.5718028902161181  0.9235026320285080
  0.7679844298102426  0.5500424932228170  0.9259637511496407
  0.1195980477850246  0.9045567250750868  0.9274116367277351
  0.3275406760214947  0.3202340833282380  0.7419170727852309
  0.7783968143287892  0.8892599328246745  0.4057720216350083
  0.9060999689679398  0.1200445795368360  0.0764500586593134
  0.1064147705461895  0.8959465568016374  0.4089674411366308
  0.2169623220800632  0.0981255731009088  0.0735706843903438
  0.5616015750546328  0.1120907275505678  0.0684366786575743
  0.4305042376397456  0.8829273038948058  0.9254292364042234
  0.2316996188063919  0.4468968151786771  0.0712499375443333
  0.5691783547948469  0.4587370255518582  0.0712201224992589
  0.8840064244913445  0.4354751896377976  0.0738071966870848
  0.2372440664935248  0.7862027160437098  0.0716309798352532
  0.5571697927020451  0.7795218514941121  0.0701016624960721
  0.8850466324234063  0.7856896560587394  0.0715008702760204
  0.0055488664503006  0.9930598264773786  0.2579873468593248
  0.3301408439577584  0.9924120210274324  0.2602854785851883
  0.4478084794162261  0.8885086491314232  0.4021386654741130
  0.6639060427637434  1.0005474149367324  0.2590987307466176
  0.3191677972357585  0.3279919240693619  0.2609477780536231
  0.6756379642965610  0.3312030786825819  0.2602698167871837
  0.9907715904866806  0.6643066559629628  0.2630732899154140
  0.3434096337491013  0.6600809956894008  0.2591884396425798
  0.6733570229220428  0.6780059605819861  0.2598174935781654
  0.1135180861913361  0.2212065827818817  0.4013537999251502
  0.4363908813448499  0.2066575180291034  0.4025908731340176
  0.7640603095169433  0.2250140499401102  0.4075824363941786
  0.1144544212199255  0.5593443514563091  0.4028981742852592
  0.4423707461158767  0.5653872026010854  0.4056487160481305
  0.7869820686629843  0.5628191569683978  0.4095275153927148
  0.9946243192612566  0.3314077578783529  0.2664607714430675
  0.7792558199009247  0.8980918926947522  0.9283255582826841
Cartesian
  0.0000000000000000  0.0000000000000000  0.0000000000000000
  0.0000000000000000  0.0000000000000000  0.0000000000000000
  0.0000000000000000  0.0000000000000000  0.0000000000000000
  0.0000000000000000  0.0000000000000000  0.0000000000000000
  0.0000000000000000  0.0000000000000000  0.0000000000000000
  0.0000000000000000  0.0000000000000000  0.0000000000000000
  0.0000000000000000  0.0000000000000000  0.0000000000000000
  0.0000000000000000  0.0000000000000000  0.0000000000000000
  0.0000000000000000  0.0000000000000000  0.0000000000000000
  0.0000000000000000  0.0000000000000000  0.0000000000000000
  0.0000000000000000  0.0000000000000000  0.0000000000000000
  0.0000000000000000  0.0000000000000000  0.0000000000000000
  0.0000000000000000  0.0000000000000000  0.0000000000000000
  0.0000000000000000  0.0000000000000000  0.0000000000000000
  0.0000000000000000  0.0000000000000000  0.0000000000000000
  0.0000000000000000  0.0000000000000000  0.0000000000000000
  0.0000000000000000  0.0000000000000000  0.0000000000000000
  0.0000000000000000  0.0000000000000000  0.0000000000000000
  0.0000000000000000  0.0000000000000000  0.0000000000000000
  0.0000000000000000  0.0000000000000000  0.0000000000000000
  0.0000000000000000  0.0000000000000000  0.0000000000000000
  0.0000000000000000  0.0000000000000000  0.0000000000000000
  0.0000000000000000  0.0000000000000000  0.0000000000000000
  0.0000000000000000  0.0000000000000000  0.0000000000000000
  0.0000000000000000  0.0000000000000000  0.0000000000000000
  0.0000000000000000  0.0000000000000000  0.0000000000000000
  0.0000000000000000  0.0000000000000000  0.0000000000000000
  0.0000000000000000  0.0000000000000000  0.0000000000000000
  0.0000000000000000  0.0000000000000000  0.0000000000000000
  0.0000000000000000  0.0000000000000000  0.0000000000000000
  0.0000000000000000  0.0000000000000000  0.0000000000000000
  0.0000000000000000  0.0000000000000000  0.0000000000000000
  0.0000000000000000  0.0000000000000000  0.0000000000000000
  0.0000000000000000  0.0000000000000000  0.0000000000000000
  0.0000000000000000  0.0000000000000000  0.0000000000000000
  0.0000000000000000  0.0000000000000000  0.0000000000000000
  0.0000000000000000  0.0000000000000000  0.0000000000000000
  0.0000000000000000  0.0000000000000000  0.0000000000000000
  0.0000000000000000  0.0000000000000000  0.0000000000000000
  0.0000000000000000  0.0000000000000000  0.0000000000000000
  0.0000000000000000  0.0000000000000000  0.0000000000000000
  0.0000000000000000  0.0000000000000000  0.0000000000000000
  0.0000000000000000  0.0000000000000000  0.0000000000000000
  0.0000000000000000  0.0000000000000000  0.0000000000000000
  0.0000000000000000  0.0000000000000000  0.0000000000000000
  0.0000000000000000  0.0000000000000000  0.0000000000000000
  0.0000000000000000  0.0000000000000000  0.0000000000000000
  0.0000000000000000  0.0000000000000000  0.0000000000000000
  0.0000000000000000  0.0000000000000000  0.0000000000000000
  0.0000000000000000  0.0000000000000000  0.0000000000000000
  0.0000000000000000  0.0000000000000000  0.0000000000000000
  0.0000000000000000  0.0000000000000000  0.0000000000000000
  0.0000000000000000  0.0000000000000000  0.0000000000000000
  0.0000000000000000  0.0000000000000000  0.0000000000000000
  0.0000000000000000  0.0000000000000000  0.0000000000000000
  0.0000000000000000  0.0000000000000000  0.0000000000000000
  0.0000000000000000  0.0000000000000000  0.0000000000000000
  0.0000000000000000  0.0000000000000000  0.0000000000000000
  0.0000000000000000  0.0000000000000000  0.0000000000000000
  0.0000000000000000  0.0000000000000000  0.0000000000000000
  0.0000000000000000  0.0000000000000000  0.0000000000000000
  0.0000000000000000  0.0000000000000000  0.0000000000000000
  0.0000000000000000  0.0000000000000000  0.0000000000000000
  0.0000000000000000  0.0000000000000000  0.0000000000000000
  0.0000000000000000  0.0000000000000000  0.0000000000000000
  0.0000000000000000  0.0000000000000000  0.0000000000000000
  0.0000000000000000  0.0000000000000000  0.0000000000000000
  0.0000000000000000  0.0000000000000000  0.0000000000000000
  0.0000000000000000  0.0000000000000000  0.0000000000000000
  0.0000000000000000  0.0000000000000000  0.0000000000000000
  0.0000000000000000  0.0000000000000000  0.0000000000000000
  0.0000000000000000  0.0000000000000000  0.0000000000000000
  0.0000000000000000  0.0000000000000000  0.0000000000000000
  0.0000000000000000  0.0000000000000000  0.0000000000000000
  0.0000000000000000  0.0000000000000000  0.0000000000000000
  0.0000000000000000  0.0000000000000000  0.0000000000000000
  0.0000000000000000  0.0000000000000000  0.0000000000000000
  0.0000000000000000  0.0000000000000000  0.0000000000000000
  0.0000000000000000  0.0000000000000000  0.0000000000000000
  0.0000000000000000  0.0000000000000000  0.0000000000000000
  0.0000000000000000  0.0000000000000000  0.0000000000000000
  0.0000000000000000  0.0000000000000000  0.0000000000000000
  0.0000000000000000  0.0000000000000000  0.0000000000000000
  0.0000000000000000  0.0000000000000000  0.0000000000000000
  0.0000000000000000  0.0000000000000000  0.0000000000000000
  0.0000000000000000  0.0000000000000000  0.0000000000000000
  0.0000000000000000  0.0000000000000000  0.0000000000000000
  0.0000000000000000  0.0000000000000000  0.0000000000000000
  0.0000000000000000  0.0000000000000000  0.0000000000000000
  0.0000000000000000  0.0000000000000000  0.0000000000000000
  0.0000000000000000  0.0000000000000000  0.0000000000000000
  0.0000000000000000  0.0000000000000000  0.0000000000000000
  0.0000000000000000  0.0000000000000000  0.0000000000000000
  0.0000000000000000  0.0000000000000000  0.0000000000000000
  0.0000000000000000  0.0000000000000000  0.0000000000000000
  0.0000000000000000  0.0000000000000000  0.0000000000000000
  0.0000000000000000  0.0000000000000000  0.0000000000000000
  0.0000000000000000  0.0000000000000000  0.0000000000000000
  0.0000000000000000  0.0000000000000000  0.0000000000000000
  0.0000000000000000  0.0000000000000000  0.0000000000000000
  0.0000000000000000  0.0000000000000000  0.0000000000000000
  0.0000000000000000  0.0000000000000000  0.0000000000000000
