Al Co Li Ni O 
 1.0000000000000000
     8.4908300834614785   -0.0147685238944017   -0.0224277601224295
    -4.2581988951131331    7.3449592503045826    0.0177735844253757
    -0.0372076155094063    0.0124406012090187   14.2022834369131683
 Al  Co  Li  Ni  O  
   9   9  21   9  54
Direct
  0.0068925666577400  0.3389881818465454  0.0042393795743365
  0.4443300595203822  0.2207951098058699  0.6659530697739059
  0.8869367140005976  0.7801329492123371  0.3366039573833958
  0.2215560258235456  0.4465519000713130  0.3362866403640652
  0.5503887945547419  0.1088026926999817  0.3257673213304315
  0.6718247248452515  0.6734988686980331  0.9953026530879754
  0.3380641918137570  0.0046631510442054  0.0000985471909800
  0.1103660732146211  0.5514437944876037  0.6655212104094871
  0.7793933952616711  0.8867158825755721  0.6691018634220214
  0.0044161812223109  0.0032388760871243  0.0001637009438795
  0.7782927421408772  0.5524596734337734  0.6672919990164985
  0.1116698989016029  0.2205194466787788  0.6667205030422708
  0.5515405466533778  0.7756558013076996  0.3335026620377377
  0.4449218411842397  0.8879223552020080  0.6660927845663666
  0.2216211770567895  0.1130978590508249  0.3339569435565295
  0.3363513883872997  0.6710538888552690  0.9996323919324013
  0.6711372089808803  0.3381145178355921  0.9998499288019218
  0.8857693470897701  0.4443340411654119  0.3327383242843567
  0.4390536565421145  0.5413852437202779  0.1682898026280384
  0.1176350844778185  0.8765895027668192  0.1639036340365010
  0.7789629756557088  0.2258245365927323  0.1658891045361415
  0.4323651004034160  0.8617620144769018  0.1675045854515176
  0.7765729717939678  0.8942935191750365  0.1664252617044326
  0.0171513630368523  0.0291588370608196  0.5003112678079802
  0.3296954989555091  0.9877200219206230  0.4976610465026710
  0.3236107417530008  0.3448232120958608  0.5019994410514244
  0.7787201589766468  0.5370509847062550  0.1659918467187183
  0.6608037724178787  0.9978929765791449  0.5006486247674147
  0.6878824634215164  0.3447565866519327  0.5000269134565585
  0.6399936990084285  0.6605137649314443  0.5004675134090135
  0.2067261217990009  0.1026461793093603  0.8334208444086855
  0.8735144958134597  0.1108656340946794  0.8330798635971063
  0.2274080613957636  0.4458186503379551  0.8340361771847640
  0.5595403289657810  0.4442222042710923  0.8327196354969998
  0.8660625563966420  0.4434185653041212  0.8325541192121976
  0.2086645979950106  0.7798420650113016  0.8342318373571302
  0.5417163364903956  0.7909668401614027  0.8338177745448904
  0.1242716142985358  0.2122316907514232  0.1664385892971794
  0.0105578874243336  0.6562134182091270  0.4983828088881026
  0.6704445608033041  0.0066809665965621  0.9969340866466964
  0.1087635132139938  0.8854247135367430  0.6688505951301097
  0.4441142112558013  0.5545281408093317  0.6656007819615226
  0.7777912266400264  0.2197678451411349  0.6664101843086954
  0.5543190552801248  0.4426343652520046  0.3297387116056427
  0.2181734986468556  0.7750578348374050  0.3306717324744283
  0.8862571277523940  0.1131186404024191  0.3378713897601386
  0.0028709723574636  0.6697508439982157  0.9995567261120257
  0.3396504302853813  0.3371772653465328  0.0028486393495371
  0.3309502668668855  0.9965149794607837  0.7366412923261551
  0.0013915755077534  0.0031986267396675  0.7387791377148289
  0.8880742644604284  0.7726686651578659  0.5980284970745160
  0.5643229569444941  0.7901440820478527  0.5943165701769075
  0.2232313293989776  0.7790009664810852  0.5969321065385955
  0.8986845405533259  0.1016862576725259  0.5955472943498350
  0.5600667241870809  0.4394729042713478  0.5902440207389789
  0.2248351074045303  0.4428181837275034  0.5987414361637847
  0.6581680984766650  0.9831391405815424  0.7394742198097788
  0.5405921140677777  0.1008174357761575  0.5914726176514550
  0.8930529752782448  0.4587353524924609  0.5935475492855247
  0.0148789484806713  0.3343906700074512  0.7416169815288499
  0.3316151907521103  0.6722525217029371  0.7387636994308765
  0.6606497173211280  0.3429209970200873  0.7381519569908050
  0.9935849234125770  0.6454181662184695  0.7414361451803017
  0.2278326742793624  0.1247059378536335  0.5924630482975175
  0.6614933191555039  0.6594904562965167  0.7350769546477878
  0.1115604105060086  0.2212432240534739  0.9300723761073968
  0.4474482999571520  0.2300539491734668  0.9322331116307367
  0.7927833760194857  0.2372495234530589  0.9283397087079734
  0.1237147800542928  0.5513936723383992  0.9274502386025034
  0.4521819432796478  0.5728812925180762  0.9233600820075339
  0.7644014630461696  0.5455528050385254  0.9261168405517353
  0.1211791361126444  0.9084002164800963  0.9277504484195943
  0.3278123205345764  0.3212083657216027  0.7417614048199539
  0.7743093000365917  0.8901181189863292  0.4079759584035260
  0.9060618831793972  0.1193296324672204  0.0761953077945350
  0.1053274286895913  0.8981333725998225  0.4095513458487758
  0.2145578902120491  0.0971234995422421  0.0746453527625945
  0.5638902429777062  0.1151404935769236  0.0672352287247620
  0.4306451972828710  0.8820040802710805  0.9255990062292483
  0.2317804609311979  0.4472398760839554  0.0718218440284062
  0.5696131136882059  0.4591642557972477  0.0712407794135430
  0.8793387262796131  0.4321764293156817  0.0734388451062173
  0.2416489903807531  0.7875694030126610  0.0721199006091879
  0.5542970952491616  0.7775154607891963  0.0693949216162721
  0.8845082266915512  0.7899712578670943  0.0725818012274146
  0.0010589143964026  0.0037578511042682  0.2653800700363931
  0.3230581635216156  0.9919741220956199  0.2603366558890912
  0.4491224511108883  0.8914798303418791  0.4001140603325553
  0.6506693585307488  0.9895257956723922  0.2553392078830825
  0.3145246601290523  0.3239652418530666  0.2613605381691357
  0.6781813835317011  0.3300595309989803  0.2578955952422035
  0.9869772956548174  0.6667603487678022  0.2615680928732473
  0.3410165697418179  0.6578487657148742  0.2595527937678028
  0.6742168266368010  0.6855671928655696  0.2595753571078916
  0.1284724698017214  0.2307564511624278  0.4089188868942557
  0.4354564646982341  0.2051669172080466  0.4037773569881721
  0.7658750906778876  0.2213261089663732  0.4033416449342083
  0.1060134396949409  0.5583483200317120  0.3998529442230491
  0.4442295965215237  0.5662700944208297  0.4056844217800020
  0.7895478194563379  0.5608555529780189  0.4080728932691783
  0.9933865618267036  0.3285137901349415  0.2667757554839127
  0.7809824764688997  0.8990436931383882  0.9278925711644916
Cartesian
  0.0000000000000000  0.0000000000000000  0.0000000000000000
  0.0000000000000000  0.0000000000000000  0.0000000000000000
  0.0000000000000000  0.0000000000000000  0.0000000000000000
  0.0000000000000000  0.0000000000000000  0.0000000000000000
  0.0000000000000000  0.0000000000000000  0.0000000000000000
  0.0000000000000000  0.0000000000000000  0.0000000000000000
  0.0000000000000000  0.0000000000000000  0.0000000000000000
  0.0000000000000000  0.0000000000000000  0.0000000000000000
  0.0000000000000000  0.0000000000000000  0.0000000000000000
  0.0000000000000000  0.0000000000000000  0.0000000000000000
  0.0000000000000000  0.0000000000000000  0.0000000000000000
  0.0000000000000000  0.0000000000000000  0.0000000000000000
  0.0000000000000000  0.0000000000000000  0.0000000000000000
  0.0000000000000000  0.0000000000000000  0.0000000000000000
  0.0000000000000000  0.0000000000000000  0.0000000000000000
  0.0000000000000000  0.0000000000000000  0.0000000000000000
  0.0000000000000000  0.0000000000000000  0.0000000000000000
  0.0000000000000000  0.0000000000000000  0.0000000000000000
  0.0000000000000000  0.0000000000000000  0.0000000000000000
  0.0000000000000000  0.0000000000000000  0.0000000000000000
  0.0000000000000000  0.0000000000000000  0.0000000000000000
  0.0000000000000000  0.0000000000000000  0.0000000000000000
  0.0000000000000000  0.0000000000000000  0.0000000000000000
  0.0000000000000000  0.0000000000000000  0.0000000000000000
  0.0000000000000000  0.0000000000000000  0.0000000000000000
  0.0000000000000000  0.0000000000000000  0.0000000000000000
  0.0000000000000000  0.0000000000000000  0.0000000000000000
  0.0000000000000000  0.0000000000000000  0.0000000000000000
  0.0000000000000000  0.0000000000000000  0.0000000000000000
  0.0000000000000000  0.0000000000000000  0.0000000000000000
  0.0000000000000000  0.0000000000000000  0.0000000000000000
  0.0000000000000000  0.0000000000000000  0.0000000000000000
  0.0000000000000000  0.0000000000000000  0.0000000000000000
  0.0000000000000000  0.0000000000000000  0.0000000000000000
  0.0000000000000000  0.0000000000000000  0.0000000000000000
  0.0000000000000000  0.0000000000000000  0.0000000000000000
  0.0000000000000000  0.0000000000000000  0.0000000000000000
  0.0000000000000000  0.0000000000000000  0.0000000000000000
  0.0000000000000000  0.0000000000000000  0.0000000000000000
  0.0000000000000000  0.0000000000000000  0.0000000000000000
  0.0000000000000000  0.0000000000000000  0.0000000000000000
  0.0000000000000000  0.0000000000000000  0.0000000000000000
  0.0000000000000000  0.0000000000000000  0.0000000000000000
  0.0000000000000000  0.0000000000000000  0.0000000000000000
  0.0000000000000000  0.0000000000000000  0.0000000000000000
  0.0000000000000000  0.0000000000000000  0.0000000000000000
  0.0000000000000000  0.0000000000000000  0.0000000000000000
  0.0000000000000000  0.0000000000000000  0.0000000000000000
  0.0000000000000000  0.0000000000000000  0.0000000000000000
  0.0000000000000000  0.0000000000000000  0.0000000000000000
  0.0000000000000000  0.0000000000000000  0.0000000000000000
  0.0000000000000000  0.0000000000000000  0.0000000000000000
  0.0000000000000000  0.0000000000000000  0.0000000000000000
  0.0000000000000000  0.0000000000000000  0.0000000000000000
  0.0000000000000000  0.0000000000000000  0.0000000000000000
  0.0000000000000000  0.0000000000000000  0.0000000000000000
  0.0000000000000000  0.0000000000000000  0.0000000000000000
  0.0000000000000000  0.0000000000000000  0.0000000000000000
  0.0000000000000000  0.0000000000000000  0.0000000000000000
  0.0000000000000000  0.0000000000000000  0.0000000000000000
  0.0000000000000000  0.0000000000000000  0.0000000000000000
  0.0000000000000000  0.0000000000000000  0.0000000000000000
  0.0000000000000000  0.0000000000000000  0.0000000000000000
  0.0000000000000000  0.0000000000000000  0.0000000000000000
  0.0000000000000000  0.0000000000000000  0.0000000000000000
  0.0000000000000000  0.0000000000000000  0.0000000000000000
  0.0000000000000000  0.0000000000000000  0.0000000000000000
  0.0000000000000000  0.0000000000000000  0.0000000000000000
  0.0000000000000000  0.0000000000000000  0.0000000000000000
  0.0000000000000000  0.0000000000000000  0.0000000000000000
  0.0000000000000000  0.0000000000000000  0.0000000000000000
  0.0000000000000000  0.0000000000000000  0.0000000000000000
  0.0000000000000000  0.0000000000000000  0.0000000000000000
  0.0000000000000000  0.0000000000000000  0.0000000000000000
  0.0000000000000000  0.0000000000000000  0.0000000000000000
  0.0000000000000000  0.0000000000000000  0.0000000000000000
  0.0000000000000000  0.0000000000000000  0.0000000000000000
  0.0000000000000000  0.0000000000000000  0.0000000000000000
  0.0000000000000000  0.0000000000000000  0.0000000000000000
  0.0000000000000000  0.0000000000000000  0.0000000000000000
  0.0000000000000000  0.0000000000000000  0.0000000000000000
  0.0000000000000000  0.0000000000000000  0.0000000000000000
  0.0000000000000000  0.0000000000000000  0.0000000000000000
  0.0000000000000000  0.0000000000000000  0.0000000000000000
  0.0000000000000000  0.0000000000000000  0.0000000000000000
  0.0000000000000000  0.0000000000000000  0.0000000000000000
  0.0000000000000000  0.0000000000000000  0.0000000000000000
  0.0000000000000000  0.0000000000000000  0.0000000000000000
  0.0000000000000000  0.0000000000000000  0.0000000000000000
  0.0000000000000000  0.0000000000000000  0.0000000000000000
  0.0000000000000000  0.0000000000000000  0.0000000000000000
  0.0000000000000000  0.0000000000000000  0.0000000000000000
  0.0000000000000000  0.0000000000000000  0.0000000000000000
  0.0000000000000000  0.0000000000000000  0.0000000000000000
  0.0000000000000000  0.0000000000000000  0.0000000000000000
  0.0000000000000000  0.0000000000000000  0.0000000000000000
  0.0000000000000000  0.0000000000000000  0.0000000000000000
  0.0000000000000000  0.0000000000000000  0.0000000000000000
  0.0000000000000000  0.0000000000000000  0.0000000000000000
  0.0000000000000000  0.0000000000000000  0.0000000000000000
  0.0000000000000000  0.0000000000000000  0.0000000000000000
  0.0000000000000000  0.0000000000000000  0.0000000000000000
