Al Co Li Ni O 
 1.0000000000000000
     8.4908300834614785   -0.0147685238944017   -0.0224277601224295
    -4.2581988951131331    7.3449592503045826    0.0177735844253757
    -0.0372076155094063    0.0124406012090187   14.2022834369131683
 Al  Co  Li  Ni  O  
   9   9  21   9  54
Direct
  0.0065992307413258  0.3400759488463052  0.0039169320889235
  0.4436091531565076  0.2195768039999318  0.6667942357819845
  0.8883891433567171  0.7800250305598203  0.3378053211118112
  0.2217348679592339  0.4453035990372980  0.3317067537843601
  0.5529352172929551  0.1121411598704724  0.3260993553403003
  0.6729130544787336  0.6731655627032941  0.9951662191020725
  0.3385885775368675  0.0053280959329949  1.0003439378754793
  0.1081599769549567  0.5508977900716493  0.6681061595775196
  0.7767288970309726  0.8852416445224075  0.6683602211137613
  0.0027676402764480  0.0027437896934487  0.9990616424662870
  0.7769267194313934  0.5550515557587541  0.6689277605997808
  0.1099789589985575  0.2211811803272763  0.6672473031253815
  0.5555741206081901  0.7780287875533402  0.3312096578790346
  0.4411245937553670  0.8866369045349038  0.6661193337662185
  0.2211224434008635  0.1121928154911608  0.3317662719458078
  0.3366193133489851  0.6696085076432571  1.0004172681540398
  0.6678673528906754  0.3348934082846888  0.0000830262396478
  0.8905354137310909  0.4454890188682501  0.3348828487357720
  0.4402986491665239  0.5400355151191947  0.1665543693002511
  0.1187587492254207  0.8787922294184799  0.1649578018566171
  0.7829932638001988  0.2329276851739933  0.1661826232343239
  0.4308398544830783  0.8672519687326649  0.1657817458419307
  0.7806631612307129  0.8952735271616592  0.1656423255488248
  0.0313950657104165  0.0536737298179532  0.5010692707242720
  0.3257471461458767  0.0040129279965879  0.4990547080978075
  0.3139474017004683  0.6182157163348175  0.4996858163684184
  0.7808209410926070  0.5392058942112693  0.1664089786543290
  0.6777789107858381  0.0116602807926118  0.5004570415512444
  0.6766907221757371  0.3391949053455255  0.5000342355643904
  0.6402357077481661  0.6403935597373238  0.4994188264923504
  0.2056659053401947  0.0983406985268061  0.8329612457308951
  0.8736354006775726  0.1094647142317184  0.8333837705235408
  0.2281983854658698  0.4464452982370232  0.8345815946186761
  0.5610312107849965  0.4437512021124349  0.8332295359283237
  0.8678181344328783  0.4424202852859309  0.8342313488678950
  0.2153418178364917  0.7859385938147986  0.8343964813372695
  0.5479647014483456  0.7937487659732273  0.8338037521864733
  0.1260367371121024  0.2155894999322862  0.1648948961178608
  0.0019226379979147  0.6589164938745917  0.5001158055664020
  0.6701713518966805  0.0057477283525059  0.9986384426128951
  0.1071090257316652  0.8846285699386318  0.6684372953640465
  0.4428066878472507  0.5526032959020591  0.6669363890275591
  0.7761119007273540  0.2187519137602347  0.6671386313240460
  0.5531794172736415  0.4415549894776939  0.3319921851800646
  0.2214397583742047  0.7774067388616049  0.3313396382172614
  0.8868725478523781  0.1132015205892332  0.3335566515618723
  0.0040084447485585  0.6707190759638464  0.9995258135160685
  0.3385886349518955  0.3364567895682984  0.0013901569473813
  0.3276389603849502  0.9935015519139565  0.7370781689949887
  1.0002366829377174  0.0029009800615403  0.7389522583018517
  0.8868605661482314  0.7730380105949056  0.5971344479271887
  0.5529278054373783  0.7758967452055124  0.5934504802028672
  0.2197019995485459  0.7742954951801603  0.5944098299309362
  0.8903711951149472  0.1013939862019741  0.5952838891921205
  0.5612472954881150  0.4415964842515854  0.5950533038955921
  0.2213060362035135  0.4439712969174724  0.6001033620547961
  0.6617873803848988  0.9878115819840479  0.7375928093170341
  0.5384505098201807  0.1007059099342327  0.5901095981116788
  0.8881140355094675  0.4511682194379070  0.5965344935860247
  0.0127876506739897  0.3364909722896951  0.7445598301077263
  0.3319076965684530  0.6722352012607515  0.7410459268147346
  0.6626376424610777  0.3388487270415780  0.7397512476167802
 -0.0000450439153667  0.6618250163007402  0.7390291646635437
  0.2170200275703310  0.1068566436377038  0.5982245222369479
  0.6614961337585108  0.6603915788829517  0.7375578388367260
  0.1140950578812302  0.2240522022088043  0.9288916732744401
  0.4466139239957746  0.2294511049594700  0.9303737163555711
  0.7879725338202158  0.2311634562475377  0.9303406931384868
  0.1215574277695220  0.5535053497491750  0.9265395155120765
  0.4504002159741734  0.5684834563727394  0.9243986025819497
  0.7695842491254965  0.5492313054557914  0.9264317632865090
  0.1207673255653930  0.9026109905482316  0.9277594067315083
  0.3316762756244342  0.3278990608675168  0.7402840089893440
  0.7726119670570101  0.8905832461621200  0.4059172388750072
  0.9001294943369507  0.1168149930339467  0.0745499875680434
  0.1064582899411393  0.9023214089314511  0.4110728971147301
  0.2167176969409217  0.1035078872634915  0.0724820642607523
  0.5638121842728113  0.1143854494213658  0.0699575007653342
  0.4392454810906217  0.8855414984405892  0.9281103383484725
  0.2325904726743518  0.4474380718683285  0.0713138949399116
  0.5647031668434727  0.4554057116018431  0.0694903535594357
  0.8841483187802790  0.4384138543245714  0.0728689792522920
  0.2359956635862734  0.7869116587259493  0.0718603437774586
  0.5582111871915004  0.7809808977684737  0.0706933439685801
  0.8862882143770290  0.7877333221436225  0.0732177403298572
 -0.0017304218821944  1.0000397349834484  0.2615348218488518
  0.3259107997282250  0.9931945908249431  0.2594471020599149
  0.4446500162023044  0.8874949833720767  0.4004148650745313
  0.6648130452133520  0.9987366222836035  0.2576454834820689
  0.3187197771045586  0.3278039843340367  0.2588500233800535
  0.6781718375611970  0.3352634889285073  0.2592055448644688
  0.9958630605061017  0.6709823143760293  0.2653844131723051
  0.3464002552291727  0.6623648047998354  0.2567012130264169
  0.6724035792475124  0.6764954468684125  0.2605558063486105
  0.1114824685963432  0.2224373677162546  0.3999361445147991
  0.4408724037768704  0.2104476602517877  0.4013702906593316
  0.7692244189375921  0.2195669403686257  0.4027144963942966
  0.1152810496412760  0.5606010080264398  0.4032043614653291
  0.4431587594164100  0.5635514696427830  0.4043417174162176
  0.7907312148569526  0.5621232050496527  0.4115638793730315
  0.9933762021962099  0.3319133773609600  0.2632689529239539
  0.7807028076783469  0.8997379733004600  0.9279045745805626
Cartesian
  0.0000000000000000  0.0000000000000000  0.0000000000000000
  0.0000000000000000  0.0000000000000000  0.0000000000000000
  0.0000000000000000  0.0000000000000000  0.0000000000000000
  0.0000000000000000  0.0000000000000000  0.0000000000000000
  0.0000000000000000  0.0000000000000000  0.0000000000000000
  0.0000000000000000  0.0000000000000000  0.0000000000000000
  0.0000000000000000  0.0000000000000000  0.0000000000000000
  0.0000000000000000  0.0000000000000000  0.0000000000000000
  0.0000000000000000  0.0000000000000000  0.0000000000000000
  0.0000000000000000  0.0000000000000000  0.0000000000000000
  0.0000000000000000  0.0000000000000000  0.0000000000000000
  0.0000000000000000  0.0000000000000000  0.0000000000000000
  0.0000000000000000  0.0000000000000000  0.0000000000000000
  0.0000000000000000  0.0000000000000000  0.0000000000000000
  0.0000000000000000  0.0000000000000000  0.0000000000000000
  0.0000000000000000  0.0000000000000000  0.0000000000000000
  0.0000000000000000  0.0000000000000000  0.0000000000000000
  0.0000000000000000  0.0000000000000000  0.0000000000000000
  0.0000000000000000  0.0000000000000000  0.0000000000000000
  0.0000000000000000  0.0000000000000000  0.0000000000000000
  0.0000000000000000  0.0000000000000000  0.0000000000000000
  0.0000000000000000  0.0000000000000000  0.0000000000000000
  0.0000000000000000  0.0000000000000000  0.0000000000000000
  0.0000000000000000  0.0000000000000000  0.0000000000000000
  0.0000000000000000  0.0000000000000000  0.0000000000000000
  0.0000000000000000  0.0000000000000000  0.0000000000000000
  0.0000000000000000  0.0000000000000000  0.0000000000000000
  0.0000000000000000  0.0000000000000000  0.0000000000000000
  0.0000000000000000  0.0000000000000000  0.0000000000000000
  0.0000000000000000  0.0000000000000000  0.0000000000000000
  0.0000000000000000  0.0000000000000000  0.0000000000000000
  0.0000000000000000  0.0000000000000000  0.0000000000000000
  0.0000000000000000  0.0000000000000000  0.0000000000000000
  0.0000000000000000  0.0000000000000000  0.0000000000000000
  0.0000000000000000  0.0000000000000000  0.0000000000000000
  0.0000000000000000  0.0000000000000000  0.0000000000000000
  0.0000000000000000  0.0000000000000000  0.0000000000000000
  0.0000000000000000  0.0000000000000000  0.0000000000000000
  0.0000000000000000  0.0000000000000000  0.0000000000000000
  0.0000000000000000  0.0000000000000000  0.0000000000000000
  0.0000000000000000  0.0000000000000000  0.0000000000000000
  0.0000000000000000  0.0000000000000000  0.0000000000000000
  0.0000000000000000  0.0000000000000000  0.0000000000000000
  0.0000000000000000  0.0000000000000000  0.0000000000000000
  0.0000000000000000  0.0000000000000000  0.0000000000000000
  0.0000000000000000  0.0000000000000000  0.0000000000000000
  0.0000000000000000  0.0000000000000000  0.0000000000000000
  0.0000000000000000  0.0000000000000000  0.0000000000000000
  0.0000000000000000  0.0000000000000000  0.0000000000000000
  0.0000000000000000  0.0000000000000000  0.0000000000000000
  0.0000000000000000  0.0000000000000000  0.0000000000000000
  0.0000000000000000  0.0000000000000000  0.0000000000000000
  0.0000000000000000  0.0000000000000000  0.0000000000000000
  0.0000000000000000  0.0000000000000000  0.0000000000000000
  0.0000000000000000  0.0000000000000000  0.0000000000000000
  0.0000000000000000  0.0000000000000000  0.0000000000000000
  0.0000000000000000  0.0000000000000000  0.0000000000000000
  0.0000000000000000  0.0000000000000000  0.0000000000000000
  0.0000000000000000  0.0000000000000000  0.0000000000000000
  0.0000000000000000  0.0000000000000000  0.0000000000000000
  0.0000000000000000  0.0000000000000000  0.0000000000000000
  0.0000000000000000  0.0000000000000000  0.0000000000000000
  0.0000000000000000  0.0000000000000000  0.0000000000000000
  0.0000000000000000  0.0000000000000000  0.0000000000000000
  0.0000000000000000  0.0000000000000000  0.0000000000000000
  0.0000000000000000  0.0000000000000000  0.0000000000000000
  0.0000000000000000  0.0000000000000000  0.0000000000000000
  0.0000000000000000  0.0000000000000000  0.0000000000000000
  0.0000000000000000  0.0000000000000000  0.0000000000000000
  0.0000000000000000  0.0000000000000000  0.0000000000000000
  0.0000000000000000  0.0000000000000000  0.0000000000000000
  0.0000000000000000  0.0000000000000000  0.0000000000000000
  0.0000000000000000  0.0000000000000000  0.0000000000000000
  0.0000000000000000  0.0000000000000000  0.0000000000000000
  0.0000000000000000  0.0000000000000000  0.0000000000000000
  0.0000000000000000  0.0000000000000000  0.0000000000000000
  0.0000000000000000  0.0000000000000000  0.0000000000000000
  0.0000000000000000  0.0000000000000000  0.0000000000000000
  0.0000000000000000  0.0000000000000000  0.0000000000000000
  0.0000000000000000  0.0000000000000000  0.0000000000000000
  0.0000000000000000  0.0000000000000000  0.0000000000000000
  0.0000000000000000  0.0000000000000000  0.0000000000000000
  0.0000000000000000  0.0000000000000000  0.0000000000000000
  0.0000000000000000  0.0000000000000000  0.0000000000000000
  0.0000000000000000  0.0000000000000000  0.0000000000000000
  0.0000000000000000  0.0000000000000000  0.0000000000000000
  0.0000000000000000  0.0000000000000000  0.0000000000000000
  0.0000000000000000  0.0000000000000000  0.0000000000000000
  0.0000000000000000  0.0000000000000000  0.0000000000000000
  0.0000000000000000  0.0000000000000000  0.0000000000000000
  0.0000000000000000  0.0000000000000000  0.0000000000000000
  0.0000000000000000  0.0000000000000000  0.0000000000000000
  0.0000000000000000  0.0000000000000000  0.0000000000000000
  0.0000000000000000  0.0000000000000000  0.0000000000000000
  0.0000000000000000  0.0000000000000000  0.0000000000000000
  0.0000000000000000  0.0000000000000000  0.0000000000000000
  0.0000000000000000  0.0000000000000000  0.0000000000000000
  0.0000000000000000  0.0000000000000000  0.0000000000000000
  0.0000000000000000  0.0000000000000000  0.0000000000000000
  0.0000000000000000  0.0000000000000000  0.0000000000000000
  0.0000000000000000  0.0000000000000000  0.0000000000000000
  0.0000000000000000  0.0000000000000000  0.0000000000000000
