Ni Co Al Li  O                          
   1.00000000000000     
     8.4672877443361756    0.0158369500469307   -0.0032573299827660
    -4.2198548969917233    7.3482557675882676    0.0021350055323373
    -0.0050309357765097    0.0006869608121345   14.1993719663634543
   Ni   Co   Al   Li   O 
     9     9     9    21    54
Direct
  0.6704445608033041  0.0066809665965621  0.9969340866466965
  0.3396504302853813  0.3371772653465328  0.0028486393495371
  0.0028709723574636  0.6697508439982158  0.9995567261120257
  0.8862571277523941  0.1131186404024191  0.3378713897601386
  0.2181734986468555  0.7750578348374049  0.3306717324744284
  0.5543190552801249  0.4426343652520046  0.3297387116056427
  0.7777912266400264  0.2197678451411349  0.6664101843086954
  0.4441142112558012  0.5545281408093317  0.6656007819615226
  0.1087635132139937  0.8854247135367430  0.6688505951301096
  0.0044161812223109  0.0032388760871243  0.0001637009438795
  0.6711372089808805  0.3381145178355922  0.9998499288019218
  0.3363513883872997  0.6710538888552691  0.9996323919324013
  0.2216211770567895  0.1130978590508249  0.3339569435565295
  0.8857693470897701  0.4443340411654120  0.3327383242843567
  0.5515405466533778  0.7756558013076997  0.3335026620377377
  0.1116698989016029  0.2205194466787788  0.6667205030422707
  0.7782927421408772  0.5524596734337734  0.6672919990164985
  0.4449218411842395  0.8879223552020079  0.6660927845663664
  0.3380641918137570  0.0046631510442054  0.0000985471909800
  0.0068925666577400  0.3389881818465454  0.0042393795743365
  0.6718247248452514  0.6734988686980330  0.9953026530879754
  0.5503887945547419  0.1088026926999817  0.3257673213304315
  0.2215560258235456  0.4465519000713130  0.3362866403640652
  0.8869367140005977  0.7801329492123372  0.3366039573833959
  0.4443300595203823  0.2207951098058700  0.6659530697739058
  0.1103660732146210  0.5514437944876036  0.6655212104094872
  0.7793933952616712  0.8867158825755723  0.6691018634220214
  0.1242716142985358  0.2122316907514232  0.1664385892971794
  0.7789629756557090  0.2258245365927323  0.1658891045361415
  0.4390536565421144  0.5413852437202777  0.1682898026280384
  0.7787201589766468  0.5370509847062550  0.1659918467187183
  0.1176350844778185  0.8765895027668194  0.1639036340365010
  0.4323651004034161  0.8617620144769020  0.1675045854515176
  0.7765729717939678  0.8942935191750365  0.1664252617044326
  0.0171513630368523  0.0291588370608196  0.5003112678079802
  0.3296954989555090  0.9877200219206230  0.4976610465026710
  0.6608037724178786  0.9978929765791449  0.5006486247674147
  0.6878824634215164  0.3447565866519327  0.5000269134565585
  0.0105578874243335  0.6562134182091270  0.4983828088881026
  0.3236107417530008  0.3448232120958608  0.5019994410514244
  0.6399936990084285  0.6605137649314443  0.5004675134090135
  0.2067261217990009  0.1026461793093603  0.8334208444086855
  0.8735144958134597  0.1108656340946794  0.8330798635971064
  0.2274080613957636  0.4458186503379551  0.8340361771847640
  0.5595403289657810  0.4442222042710924  0.8327196354969999
  0.8660625563966420  0.4434185653041212  0.8325541192121975
  0.2086645979950106  0.7798420650113016  0.8342318373571302
  0.5417163364903956  0.7909668401614027  0.8338177745448903
  0.2145578902120491  0.0971234995422421  0.0746453527625945
  0.5638902429777062  0.1151404935769236  0.0672352287247620
  0.9060618831793974  0.1193296324672204  0.0761953077945350
  0.2317804609311978  0.4472398760839553  0.0718218440284062
  0.5696131136882059  0.4591642557972477  0.0712407794135430
  0.8793387262796131  0.4321764293156818  0.0734388451062173
  0.2416489903807530  0.7875694030126610  0.0721199006091879
  0.5542970952491615  0.7775154607891963  0.0693949216162721
  0.8845082266915512  0.7899712578670943  0.0725818012274146
  0.0010589143964026  0.0037578511042682  0.2653800700363931
  0.3230581635216154  0.9919741220956197  0.2603366558890912
  0.6506693585307488  0.9895257956723924  0.2553392078830825
  0.9933865618267035  0.3285137901349415  0.2667757554839127
  0.3145246601290523  0.3239652418530667  0.2613605381691357
  0.6781813835317010  0.3300595309989802  0.2578955952422035
  0.9869772956548175  0.6667603487678022  0.2615680928732473
  0.3410165697418179  0.6578487657148742  0.2595527937678028
  0.6742168266368012  0.6855671928655696  0.2595753571078916
  0.1284724698017214  0.2307564511624278  0.4089188868942557
  0.4354564646982340  0.2051669172080466  0.4037773569881722
  0.7658750906778877  0.2213261089663732  0.4033416449342084
  0.1060134396949408  0.5583483200317119  0.3998529442230492
  0.4442295965215237  0.5662700944208297  0.4056844217800020
  0.7895478194563381  0.5608555529780190  0.4080728932691784
  0.1053274286895913  0.8981333725998226  0.4095513458487758
  0.4491224511108882  0.8914798303418792  0.4001140603325553
  0.7743093000365917  0.8901181189863294  0.4079759584035259
  0.2278326742793624  0.1247059378536335  0.5924630482975175
  0.5405921140677776  0.1008174357761575  0.5914726176514549
  0.8986845405533259  0.1016862576725259  0.5955472943498350
  0.2248351074045303  0.4428181837275034  0.5987414361637846
  0.5600667241870809  0.4394729042713479  0.5902440207389787
  0.8930529752782448  0.4587353524924609  0.5935475492855247
  0.2232313293989776  0.7790009664810853  0.5969321065385955
  0.5643229569444941  0.7901440820478527  0.5943165701769075
  0.8880742644604283  0.7726686651578660  0.5980284970745160
  0.0013915755077534  0.0031986267396675  0.7387791377148289
  0.3309502668668856  0.9965149794607839  0.7366412923261549
  0.6581680984766649  0.9831391405815424  0.7394742198097788
  0.0148789484806713  0.3343906700074513  0.7416169815288498
  0.3278123205345764  0.3212083657216027  0.7417614048199539
  0.6606497173211281  0.3429209970200873  0.7381519569908050
  0.9935849234125769  0.6454181662184695  0.7414361451803018
  0.3316151907521103  0.6722525217029371  0.7387636994308764
  0.6614933191555039  0.6594904562965169  0.7350769546477878
  0.1115604105060086  0.2212432240534739  0.9300723761073968
  0.4474482999571521  0.2300539491734668  0.9322331116307367
  0.7927833760194858  0.2372495234530589  0.9283397087079734
  0.1237147800542928  0.5513936723383992  0.9274502386025034
  0.4521819432796477  0.5728812925180762  0.9233600820075338
  0.7644014630461697  0.5455528050385254  0.9261168405517353
  0.1211791361126444  0.9084002164800964  0.9277504484195944
  0.4306451972828711  0.8820040802710807  0.9255990062292483
  0.7809824764688997  0.8990436931383883  0.9278925711644916
 
  0.00000000E+00  0.00000000E+00  0.00000000E+00
  0.00000000E+00  0.00000000E+00  0.00000000E+00
  0.00000000E+00  0.00000000E+00  0.00000000E+00
  0.00000000E+00  0.00000000E+00  0.00000000E+00
  0.00000000E+00  0.00000000E+00  0.00000000E+00
  0.00000000E+00  0.00000000E+00  0.00000000E+00
  0.00000000E+00  0.00000000E+00  0.00000000E+00
  0.00000000E+00  0.00000000E+00  0.00000000E+00
  0.00000000E+00  0.00000000E+00  0.00000000E+00
  0.00000000E+00  0.00000000E+00  0.00000000E+00
  0.00000000E+00  0.00000000E+00  0.00000000E+00
  0.00000000E+00  0.00000000E+00  0.00000000E+00
  0.00000000E+00  0.00000000E+00  0.00000000E+00
  0.00000000E+00  0.00000000E+00  0.00000000E+00
  0.00000000E+00  0.00000000E+00  0.00000000E+00
  0.00000000E+00  0.00000000E+00  0.00000000E+00
  0.00000000E+00  0.00000000E+00  0.00000000E+00
  0.00000000E+00  0.00000000E+00  0.00000000E+00
  0.00000000E+00  0.00000000E+00  0.00000000E+00
  0.00000000E+00  0.00000000E+00  0.00000000E+00
  0.00000000E+00  0.00000000E+00  0.00000000E+00
  0.00000000E+00  0.00000000E+00  0.00000000E+00
  0.00000000E+00  0.00000000E+00  0.00000000E+00
  0.00000000E+00  0.00000000E+00  0.00000000E+00
  0.00000000E+00  0.00000000E+00  0.00000000E+00
  0.00000000E+00  0.00000000E+00  0.00000000E+00
  0.00000000E+00  0.00000000E+00  0.00000000E+00
  0.00000000E+00  0.00000000E+00  0.00000000E+00
  0.00000000E+00  0.00000000E+00  0.00000000E+00
  0.00000000E+00  0.00000000E+00  0.00000000E+00
  0.00000000E+00  0.00000000E+00  0.00000000E+00
  0.00000000E+00  0.00000000E+00  0.00000000E+00
  0.00000000E+00  0.00000000E+00  0.00000000E+00
  0.00000000E+00  0.00000000E+00  0.00000000E+00
  0.00000000E+00  0.00000000E+00  0.00000000E+00
  0.00000000E+00  0.00000000E+00  0.00000000E+00
  0.00000000E+00  0.00000000E+00  0.00000000E+00
  0.00000000E+00  0.00000000E+00  0.00000000E+00
  0.00000000E+00  0.00000000E+00  0.00000000E+00
  0.00000000E+00  0.00000000E+00  0.00000000E+00
  0.00000000E+00  0.00000000E+00  0.00000000E+00
  0.00000000E+00  0.00000000E+00  0.00000000E+00
  0.00000000E+00  0.00000000E+00  0.00000000E+00
  0.00000000E+00  0.00000000E+00  0.00000000E+00
  0.00000000E+00  0.00000000E+00  0.00000000E+00
  0.00000000E+00  0.00000000E+00  0.00000000E+00
  0.00000000E+00  0.00000000E+00  0.00000000E+00
  0.00000000E+00  0.00000000E+00  0.00000000E+00
  0.00000000E+00  0.00000000E+00  0.00000000E+00
  0.00000000E+00  0.00000000E+00  0.00000000E+00
  0.00000000E+00  0.00000000E+00  0.00000000E+00
  0.00000000E+00  0.00000000E+00  0.00000000E+00
  0.00000000E+00  0.00000000E+00  0.00000000E+00
  0.00000000E+00  0.00000000E+00  0.00000000E+00
  0.00000000E+00  0.00000000E+00  0.00000000E+00
  0.00000000E+00  0.00000000E+00  0.00000000E+00
  0.00000000E+00  0.00000000E+00  0.00000000E+00
  0.00000000E+00  0.00000000E+00  0.00000000E+00
  0.00000000E+00  0.00000000E+00  0.00000000E+00
  0.00000000E+00  0.00000000E+00  0.00000000E+00
  0.00000000E+00  0.00000000E+00  0.00000000E+00
  0.00000000E+00  0.00000000E+00  0.00000000E+00
  0.00000000E+00  0.00000000E+00  0.00000000E+00
  0.00000000E+00  0.00000000E+00  0.00000000E+00
  0.00000000E+00  0.00000000E+00  0.00000000E+00
  0.00000000E+00  0.00000000E+00  0.00000000E+00
  0.00000000E+00  0.00000000E+00  0.00000000E+00
  0.00000000E+00  0.00000000E+00  0.00000000E+00
  0.00000000E+00  0.00000000E+00  0.00000000E+00
  0.00000000E+00  0.00000000E+00  0.00000000E+00
  0.00000000E+00  0.00000000E+00  0.00000000E+00
  0.00000000E+00  0.00000000E+00  0.00000000E+00
  0.00000000E+00  0.00000000E+00  0.00000000E+00
  0.00000000E+00  0.00000000E+00  0.00000000E+00
  0.00000000E+00  0.00000000E+00  0.00000000E+00
  0.00000000E+00  0.00000000E+00  0.00000000E+00
  0.00000000E+00  0.00000000E+00  0.00000000E+00
  0.00000000E+00  0.00000000E+00  0.00000000E+00
  0.00000000E+00  0.00000000E+00  0.00000000E+00
  0.00000000E+00  0.00000000E+00  0.00000000E+00
  0.00000000E+00  0.00000000E+00  0.00000000E+00
  0.00000000E+00  0.00000000E+00  0.00000000E+00
  0.00000000E+00  0.00000000E+00  0.00000000E+00
  0.00000000E+00  0.00000000E+00  0.00000000E+00
  0.00000000E+00  0.00000000E+00  0.00000000E+00
  0.00000000E+00  0.00000000E+00  0.00000000E+00
  0.00000000E+00  0.00000000E+00  0.00000000E+00
  0.00000000E+00  0.00000000E+00  0.00000000E+00
  0.00000000E+00  0.00000000E+00  0.00000000E+00
  0.00000000E+00  0.00000000E+00  0.00000000E+00
  0.00000000E+00  0.00000000E+00  0.00000000E+00
  0.00000000E+00  0.00000000E+00  0.00000000E+00
  0.00000000E+00  0.00000000E+00  0.00000000E+00
  0.00000000E+00  0.00000000E+00  0.00000000E+00
  0.00000000E+00  0.00000000E+00  0.00000000E+00
  0.00000000E+00  0.00000000E+00  0.00000000E+00
  0.00000000E+00  0.00000000E+00  0.00000000E+00
  0.00000000E+00  0.00000000E+00  0.00000000E+00
  0.00000000E+00  0.00000000E+00  0.00000000E+00
  0.00000000E+00  0.00000000E+00  0.00000000E+00
  0.00000000E+00  0.00000000E+00  0.00000000E+00
  0.00000000E+00  0.00000000E+00  0.00000000E+00
