Al Co Li Ni O 
 1.0000000000000000
     8.4908300834614785   -0.0147685238944017   -0.0224277601224295
    -4.2581988951131331    7.3449592503045826    0.0177735844253757
    -0.0372076155094063    0.0124406012090187   14.2022834369131683
 Al  Co  Li  Ni  O  
   9   9  21   9  54
Direct
  0.0067926975053657  0.3409845327712837  0.0041818444327453
  0.4439864751567260  0.2232028773881403  0.6659636459966466
  0.8903144439652689  0.7831222164285976  0.3392660299045911
  0.2212905586766905  0.4491263425680760  0.3211910092854270
  0.5535175959847327  0.1140747595201923  0.3252295817463108
  0.6730861253190796  0.6740180294373560  0.9945545564617401
  0.3388474869550784  0.0063343762834929  1.0008938777692495
  0.1098994176403300  0.5567790393792269  0.6700042887496203
  0.7771571260285517  0.8885684819756012  0.6702523146932342
  0.0027922314210470  0.0028545641917626  0.9989618363086273
  0.7773868469168663  0.5578449377072018  0.6680742667620251
  0.1092703442333564  0.2225407084268068  0.6713111352246844
  0.5554984847439898  0.7799891484251245  0.3307214157851912
  0.4411770995559232  0.8900876695566611  0.6672680207127295
  0.2231817038127668  0.1163020823931819  0.3317353514964409
  0.3371343894604046  0.6708097873772878  1.0006977153313903
  0.6680829720304325  0.3358146419515175  0.0001508909090748
  0.8921667763152605  0.4485988877411297  0.3338147820074874
  0.4433321234025190  0.5426363456573797  0.1644302017254173
  0.1197960819857698  0.8803208382922137  0.1654628176959303
  0.7831561394413897  0.2332784822090510  0.1661529648941372
  0.4347321921860274  0.8720282144786565  0.1652274989798911
  0.7798611568133778  0.8973321692032697  0.1662496354869029
  0.0233631996271883  0.0411795858509549  0.4998668038257366
  0.3263522591895640 -0.0061138607907981  0.4991639655851557
  0.2560327074533619  0.4295216139903544  0.4875840238386128
  0.7824738409680732  0.5430559809620259  0.1655178605223402
  0.6622672535262578 -0.0001551557446889  0.5005499810855609
  0.6793777978472707  0.3437894916253874  0.5000309265631406
  0.6369270230024751  0.6519064856340959  0.4993582099189056
  0.2098229618216362  0.1019754606764752  0.8339888406505522
  0.8737213818209500  0.1127601936157313  0.8347663903326082
  0.2292302725915316  0.4490400680093496  0.8353225601773028
  0.5609464743004153  0.4442871260343826  0.8332266759974732
  0.8685615685131587  0.4429515467796002  0.8340059236920474
  0.2165630421400391  0.7874022113749994  0.8345621615742570
  0.5473507623587600  0.7958240072914388  0.8343303089986623
  0.1239482026797197  0.2121830178617640  0.1637292078021849
  0.0135381099053314  0.6553177019080210  0.4987728822303617
  0.6705485469620611  0.0067110106157228  0.9989990660720122
  0.1070684842136846  0.8886560916434653  0.6694068364610126
  0.4454760446243959  0.5585052972214949  0.6692311993974751
  0.7772171161442946  0.2219418780389131  0.6675024661918063
  0.5555383239895988  0.4448172691693382  0.3302764971051715
  0.2234409485520579  0.7800288481441461  0.3319506517463549
  0.8875166980549459  0.1159825507507427  0.3345662721117703
  0.0043384804986717  0.6714883819538287  0.9996336544699542
  0.3386199080044579  0.3370781743489189  0.0015141752079439
  0.3273182634308913  0.9981129356527295  0.7375290447443741
  1.0013944632945633  0.0027144745101230  0.7406408131939582
  0.8887334285043146  0.7779994506804779  0.5981810733077367
  0.5582689148599436  0.7836249094141063  0.5967580391794811
  0.2177954481972579  0.7814602663267592  0.5978449063287548
  0.8927605783606422  0.1069979873480956  0.5976233909329844
  0.5632526392868162  0.4430800437836960  0.5926040482457877
  0.2189137684091387  0.4464166294432415  0.6069394937316097
  0.6638945114449851  0.9936206596699730  0.7391917283943887
  0.5372664080838730  0.1020427521653674  0.5898470957489838
  0.8902078376052788  0.4536476805908772  0.5972689224483861
  0.0128255227967933  0.3397771892893202  0.7475540280866679
  0.3298366217120967  0.6800656386068044  0.7446865769769790
  0.6640065369981406  0.3404481359518376  0.7383812034200979
 -0.0020487085503250  0.6656530276391435  0.7397950789097331
  0.2156021949038192  0.1113629954831581  0.5987009957845822
  0.6644923809716466  0.6633097673216461  0.7388393153909215
  0.1138615032109579  0.2247240775373278  0.9292750236737851
  0.4466454959982771  0.2296792228709511  0.9305183350468588
  0.7879767596070694  0.2321216567090186  0.9307300669800221
  0.1211713318605643  0.5553531886062073  0.9273889257863880
  0.4513645504959214  0.5716630649411705  0.9238707780809163
  0.7699523036891600  0.5497477005611536  0.9262646229367156
  0.1209751992501056  0.9028009614448643  0.9280371039892391
  0.3329882336452407  0.3290852285944322  0.7422573252018252
  0.7700189172755426  0.8871542728798906  0.4081177190741024
  0.8987697339797160  0.1165898919447152  0.0742135275319662
  0.1085388016130947  0.9075397167780405  0.4124022667093812
  0.2153099192964534  0.1015626068007628  0.0730165140933021
  0.5640541828953781  0.1155376129400237  0.0703819108585234
  0.4408358620945625  0.8877555126301307  0.9291355001336904
  0.2326038487180966  0.4484667587948759  0.0712503630250790
  0.5653869787548329  0.4567155227668558  0.0692018436907562
  0.8845154197947698  0.4400106820799287  0.0728469366814465
  0.2360871566869627  0.7872688824625121  0.0721497185713492
  0.5592172840469162  0.7816736749810770  0.0705862075405649
  0.8866850883750292  0.7871869959830409  0.0728301124802241
 -0.0008557231595731  1.0014789353103362  0.2628876425168269
  0.3244955118879199  0.9957404512336940  0.2600227576371240
  0.4470147602417447  0.8933850560106343  0.3988849498688161
  0.6587110848822118  0.9976508964504904  0.2551327559900467
  0.3181477634073732  0.3271881799613571  0.2547577210587229
  0.6765593794852695  0.3404110184685792  0.2594680744547412
  0.9982780659762897  0.6743673108621706  0.2658854851147115
  0.3500765582541343  0.6667661586359726  0.2532292238752910
  0.6735162576227447  0.6752758928497469  0.2614229194165744
  0.1239260330400127  0.2347817397342876  0.4020442025122281
  0.4439132486151880  0.2193854678490802  0.3994483997340462
  0.7694770589527572  0.2237777356110394  0.4021053110182701
  0.1172201196419558  0.5588115746646614  0.3998125214216790
  0.4444700861862149  0.5594795137420697  0.3994820325806292
  0.7959429717674569  0.5643300095274102  0.4117279961692050
  0.9926203722510732  0.3361347927320246  0.2595228898528629
  0.7812998930407218  0.9010554283767195  0.9279199616562165
Cartesian
  0.0000000000000000  0.0000000000000000  0.0000000000000000
  0.0000000000000000  0.0000000000000000  0.0000000000000000
  0.0000000000000000  0.0000000000000000  0.0000000000000000
  0.0000000000000000  0.0000000000000000  0.0000000000000000
  0.0000000000000000  0.0000000000000000  0.0000000000000000
  0.0000000000000000  0.0000000000000000  0.0000000000000000
  0.0000000000000000  0.0000000000000000  0.0000000000000000
  0.0000000000000000  0.0000000000000000  0.0000000000000000
  0.0000000000000000  0.0000000000000000  0.0000000000000000
  0.0000000000000000  0.0000000000000000  0.0000000000000000
  0.0000000000000000  0.0000000000000000  0.0000000000000000
  0.0000000000000000  0.0000000000000000  0.0000000000000000
  0.0000000000000000  0.0000000000000000  0.0000000000000000
  0.0000000000000000  0.0000000000000000  0.0000000000000000
  0.0000000000000000  0.0000000000000000  0.0000000000000000
  0.0000000000000000  0.0000000000000000  0.0000000000000000
  0.0000000000000000  0.0000000000000000  0.0000000000000000
  0.0000000000000000  0.0000000000000000  0.0000000000000000
  0.0000000000000000  0.0000000000000000  0.0000000000000000
  0.0000000000000000  0.0000000000000000  0.0000000000000000
  0.0000000000000000  0.0000000000000000  0.0000000000000000
  0.0000000000000000  0.0000000000000000  0.0000000000000000
  0.0000000000000000  0.0000000000000000  0.0000000000000000
  0.0000000000000000  0.0000000000000000  0.0000000000000000
  0.0000000000000000  0.0000000000000000  0.0000000000000000
  0.0000000000000000  0.0000000000000000  0.0000000000000000
  0.0000000000000000  0.0000000000000000  0.0000000000000000
  0.0000000000000000  0.0000000000000000  0.0000000000000000
  0.0000000000000000  0.0000000000000000  0.0000000000000000
  0.0000000000000000  0.0000000000000000  0.0000000000000000
  0.0000000000000000  0.0000000000000000  0.0000000000000000
  0.0000000000000000  0.0000000000000000  0.0000000000000000
  0.0000000000000000  0.0000000000000000  0.0000000000000000
  0.0000000000000000  0.0000000000000000  0.0000000000000000
  0.0000000000000000  0.0000000000000000  0.0000000000000000
  0.0000000000000000  0.0000000000000000  0.0000000000000000
  0.0000000000000000  0.0000000000000000  0.0000000000000000
  0.0000000000000000  0.0000000000000000  0.0000000000000000
  0.0000000000000000  0.0000000000000000  0.0000000000000000
  0.0000000000000000  0.0000000000000000  0.0000000000000000
  0.0000000000000000  0.0000000000000000  0.0000000000000000
  0.0000000000000000  0.0000000000000000  0.0000000000000000
  0.0000000000000000  0.0000000000000000  0.0000000000000000
  0.0000000000000000  0.0000000000000000  0.0000000000000000
  0.0000000000000000  0.0000000000000000  0.0000000000000000
  0.0000000000000000  0.0000000000000000  0.0000000000000000
  0.0000000000000000  0.0000000000000000  0.0000000000000000
  0.0000000000000000  0.0000000000000000  0.0000000000000000
  0.0000000000000000  0.0000000000000000  0.0000000000000000
  0.0000000000000000  0.0000000000000000  0.0000000000000000
  0.0000000000000000  0.0000000000000000  0.0000000000000000
  0.0000000000000000  0.0000000000000000  0.0000000000000000
  0.0000000000000000  0.0000000000000000  0.0000000000000000
  0.0000000000000000  0.0000000000000000  0.0000000000000000
  0.0000000000000000  0.0000000000000000  0.0000000000000000
  0.0000000000000000  0.0000000000000000  0.0000000000000000
  0.0000000000000000  0.0000000000000000  0.0000000000000000
  0.0000000000000000  0.0000000000000000  0.0000000000000000
  0.0000000000000000  0.0000000000000000  0.0000000000000000
  0.0000000000000000  0.0000000000000000  0.0000000000000000
  0.0000000000000000  0.0000000000000000  0.0000000000000000
  0.0000000000000000  0.0000000000000000  0.0000000000000000
  0.0000000000000000  0.0000000000000000  0.0000000000000000
  0.0000000000000000  0.0000000000000000  0.0000000000000000
  0.0000000000000000  0.0000000000000000  0.0000000000000000
  0.0000000000000000  0.0000000000000000  0.0000000000000000
  0.0000000000000000  0.0000000000000000  0.0000000000000000
  0.0000000000000000  0.0000000000000000  0.0000000000000000
  0.0000000000000000  0.0000000000000000  0.0000000000000000
  0.0000000000000000  0.0000000000000000  0.0000000000000000
  0.0000000000000000  0.0000000000000000  0.0000000000000000
  0.0000000000000000  0.0000000000000000  0.0000000000000000
  0.0000000000000000  0.0000000000000000  0.0000000000000000
  0.0000000000000000  0.0000000000000000  0.0000000000000000
  0.0000000000000000  0.0000000000000000  0.0000000000000000
  0.0000000000000000  0.0000000000000000  0.0000000000000000
  0.0000000000000000  0.0000000000000000  0.0000000000000000
  0.0000000000000000  0.0000000000000000  0.0000000000000000
  0.0000000000000000  0.0000000000000000  0.0000000000000000
  0.0000000000000000  0.0000000000000000  0.0000000000000000
  0.0000000000000000  0.0000000000000000  0.0000000000000000
  0.0000000000000000  0.0000000000000000  0.0000000000000000
  0.0000000000000000  0.0000000000000000  0.0000000000000000
  0.0000000000000000  0.0000000000000000  0.0000000000000000
  0.0000000000000000  0.0000000000000000  0.0000000000000000
  0.0000000000000000  0.0000000000000000  0.0000000000000000
  0.0000000000000000  0.0000000000000000  0.0000000000000000
  0.0000000000000000  0.0000000000000000  0.0000000000000000
  0.0000000000000000  0.0000000000000000  0.0000000000000000
  0.0000000000000000  0.0000000000000000  0.0000000000000000
  0.0000000000000000  0.0000000000000000  0.0000000000000000
  0.0000000000000000  0.0000000000000000  0.0000000000000000
  0.0000000000000000  0.0000000000000000  0.0000000000000000
  0.0000000000000000  0.0000000000000000  0.0000000000000000
  0.0000000000000000  0.0000000000000000  0.0000000000000000
  0.0000000000000000  0.0000000000000000  0.0000000000000000
  0.0000000000000000  0.0000000000000000  0.0000000000000000
  0.0000000000000000  0.0000000000000000  0.0000000000000000
  0.0000000000000000  0.0000000000000000  0.0000000000000000
  0.0000000000000000  0.0000000000000000  0.0000000000000000
  0.0000000000000000  0.0000000000000000  0.0000000000000000
  0.0000000000000000  0.0000000000000000  0.0000000000000000
